%%MatrixMarket matrix coordinate real symmetric
% lower triangle only; row and column indices are 1-based per MatrixMarket convention
975 975 28626
1 1 0.011146723646723644
2 1 0.0020032051282051272
2 2 0.013995726495726491
3 1 0.0040064102564102543
3 2 0.0066773504273504253
3 3 0.027350427350427337
4 1 0.0022079772079772065
4 2 -0.00040064102564102552
4 3 -0.00080128205128205125
4 4 0.022293447293447288
5 1 0.00040064102564102557
5 2 0.0060363247863247831
5 3 0.0033386752136752118
5 4 0
5 5 0.027991452991452982
6 1 0.00080128205128205115
6 2 0.0033386752136752118
6 3 0.012713675213675208
6 4 -8.6736173798840355e-19
6 5 0.013354700854700849
6 6 0.054700854700854687
7 4 0.0022079772079772065
7 5 -0.00040064102564102563
7 6 -0.0008012820512820506
7 7 0.022293447293447295
8 4 0.00040064102564102563
8 5 0.006036324786324784
8 6 0.0033386752136752118
8 7 -4.3368086899420177e-19
8 8 0.027991452991452989
9 4 0.0008012820512820519
9 5 0.0033386752136752122
9 6 0.012713675213675208
9 7 -2.6020852139652106e-18
9 8 0.013354700854700854
9 9 0.054700854700854694
10 7 0.0022079772079772078
10 8 -0.00040064102564102574
10 9 -0.00080128205128205125
10 10 0.022293447293447288
11 7 0.00040064102564102541
11 8 0.006036324786324784
11 9 0.0033386752136752118
11 10 4.3368086899420177e-19
11 11 0.027991452991452979
12 7 0.0008012820512820506
12 8 0.0033386752136752118
12 9 0.01271367521367521
12 10 8.6736173798840355e-19
12 11 0.013354700854700849
12 12 0.054700854700854673
13 10 0.0022079772079772039
13 11 -0.00040064102564102563
13 12 -0.00080128205128205136
13 13 0.022293447293447292
14 10 0.00040064102564102552
14 11 0.0060363247863247805
14 12 0.0033386752136752109
14 13 0
14 14 0.027991452991452989
15 10 0.00080128205128205082
15 11 0.0033386752136752109
15 12 0.012713675213675203
15 13 0
15 14 0.013354700854700854
15 15 0.054700854700854687
16 13 0.0022079772079772095
16 14 -0.00040064102564102557
16 15 -0.00080128205128205147
16 16 0.022293447293447288
17 13 0.00040064102564102546
17 14 0.0060363247863247848
17 15 0.0033386752136752122
17 16 -4.3368086899420177e-19
17 17 0.027991452991452982
18 13 0.00080128205128205071
18 14 0.0033386752136752122
18 15 0.012713675213675215
18 16 -1.7347234759768071e-18
18 17 0.013354700854700852
18 18 0.05470085470085468
19 16 0.0022079772079772069
19 17 -0.00040064102564102509
19 18 -0.00080128205128204995
19 19 0.022293447293447295
20 16 0.00040064102564102612
20 17 0.0060363247863247848
20 18 0.0033386752136752122
20 19 0
20 20 0.027991452991452993
21 16 0.00080128205128205245
21 17 0.0033386752136752127
21 18 0.012713675213675208
21 19 -2.6020852139652106e-18
21 20 0.013354700854700856
21 21 0.054700854700854701
22 19 0.0022079772079772078
22 20 -0.00040064102564102584
22 21 -0.00080128205128205028
22 22 0.022293447293447288
23 19 0.00040064102564102519
23 20 0.0060363247863247866
23 21 0.0033386752136752122
23 22 0
23 23 0.027991452991452982
24 19 0.00080128205128205212
24 20 0.0033386752136752131
24 21 0.012713675213675205
24 22 -2.6020852139652106e-18
24 23 0.013354700854700849
24 24 0.054700854700854687
25 22 0.0022079772079771957
25 23 -0.00040064102564102509
25 24 -0.00080128205128205039
25 25 0.022293447293447288
26 22 0.00040064102564102617
26 23 0.0060363247863247701
26 24 0.0033386752136752057
26 25 -8.6736173798840355e-19
26 26 0.027991452991452975
27 22 0.0008012820512820519
27 23 0.0033386752136752062
27 24 0.012713675213675179
27 25 -8.6736173798840355e-19
27 26 0.013354700854700847
27 27 0.054700854700854673
28 25 0.0022079772079772152
28 26 -0.00040064102564102487
28 27 -0.00080128205128205104
28 28 0.022293447293447288
29 25 0.00040064102564102628
29 26 0.0060363247863247935
29 27 0.0033386752136752179
29 28 0
29 29 0.027991452991452993
30 25 0.00080128205128205093
30 26 0.003338675213675217
30 27 0.012713675213675233
30 28 -1.7347234759768071e-18
30 29 0.013354700854700856
30 30 0.05470085470085468
31 28 0.0022079772079772069
31 29 -0.00040064102564102628
31 30 -0.00080128205128204941
31 31 0.022293447293447299
32 28 0.0004006410256410246
32 29 0.006036324786324784
32 30 0.0033386752136752118
32 31 1.7347234759768071e-18
32 32 0.027991452991452993
33 28 0.00080128205128205234
33 29 0.0033386752136752135
33 30 0.012713675213675208
33 31 3.4694469519536142e-18
33 32 0.013354700854700851
33 33 0.054700854700854722
34 31 0.0022079772079772022
34 32 -0.00040064102564102563
34 33 -0.00080128205128205537
34 34 0.022293447293447285
35 31 0.00040064102564102546
35 32 0.0060363247863247779
35 33 0.0033386752136752096
35 34 4.3368086899420177e-19
35 35 0.027991452991452982
36 31 0.00080128205128204681
36 32 0.0033386752136752083
36 33 0.012713675213675198
36 34 6.9388939039072284e-18
36 35 0.013354700854700849
36 36 0.054700854700854673
37 34 0.00220797720797721
37 35 -0.00040064102564102628
37 36 -0.00080128205128205407
37 37 0.011146723646723642
38 34 0.00040064102564102476
38 35 0.0060363247863247883
38 36 0.0033386752136752148
38 37 -0.0020032051282051267
38 38 0.013995726495726491
39 34 0.00080128205128204768
39 35 0.003338675213675214
39 36 0.012713675213675214
39 37 -0.0040064102564102517
39 38 0.006677350427350421
39 39 0.02735042735042734
40 1 0.0029024216524216506
40 2 0.00040064102564102552
40 3 0.0020032051282051272
40 4 -0.00023148148148148157
40 5 0.0020032051282051276
40 6 0.00040064102564102541
40 40 0.022293447293447288
41 1 -0.00040064102564102563
41 2 -0.0023504273504273503
41 3 -0.0013354700854700851
41 4 0.0020032051282051272
41 5 -0.0016559829059829051
41 6 -0.00066773504273504231
41 40 -4.3368086899420177e-19
41 41 0.027991452991452982
42 1 0.0020032051282051267
42 2 0.0013354700854700853
42 3 0.011004273504273496
42 4 -0.00040064102564102557
42 5 0.00066773504273504242
42 6 0.0050213675213675174
42 40 0.0080128205128205086
42 41 8.6736173798840355e-19
42 42 0.054700854700854673
43 1 -0.00023148148148148171
43 2 -0.0020032051282051276
43 3 -0.00040064102564102536
43 4 0.0058048433048433004
43 5 -3.2526065174565133e-19
43 6 -4.3368086899420177e-19
43 7 -0.00023148148148148168
43 8 0.0020032051282051276
43 9 0.00040064102564102552
43 40 0.004415954415954413
43 41 -1.6263032587282567e-19
43 42 -0.0016025641025641021
43 43 0.044586894586894577
44 1 -0.0020032051282051276
44 2 -0.0016559829059829051
44 3 -0.00066773504273504221
44 4 -1.6263032587282567e-19
44 5 -0.0047008547008547015
44 6 -0.0026709401709401701
44 7 0.0020032051282051272
44 8 -0.0016559829059829057
44 9 -0.00066773504273504307
44 40 -5.4210108624275222e-20
44 41 0.012072649572649566
44 42 0
44 43 0
44 44 0.055982905982905964
45 1 0.00040064102564102568
45 2 0.00066773504273504242
45 3 0.0050213675213675183
45 4 0
45 5 0.002670940170940171
45 6 0.022008547008546993
45 7 -0.00040064102564102536
45 8 0.00066773504273504156
45 9 0.0050213675213675165
45 40 0.0016025641025641029
45 41 0
45 42 0.025427350427350413
45 43 -2.6020852139652106e-18
45 44 -3.4694469519536142e-18
45 45 0.10940170940170937
46 4 -0.00023148148148148184
46 5 -0.0020032051282051276
46 6 -0.00040064102564102487
46 7 0.0058048433048433021
46 8 1.0842021724855044e-19
46 9 0
46 10 -0.0002314814814814816
46 11 0.0020032051282051272
46 12 0.00040064102564102509
46 43 0.004415954415954413
46 44 -1.0842021724855044e-19
46 45 -0.0016025641025641012
46 46 0.044586894586894583
47 4 -0.0020032051282051276
47 5 -0.0016559829059829057
47 6 -0.00066773504273504166
47 7 2.1684043449710089e-19
47 8 -0.0047008547008547015
47 9 -0.0026709401709401693
47 10 0.0020032051282051272
47 11 -0.0016559829059829051
47 12 -0.00066773504273504264
47 43 5.4210108624275222e-20
47 44 0.012072649572649568
47 45 -4.3368086899420177e-19
47 46 4.3368086899420177e-19
47 47 0.055982905982905971
48 4 0.00040064102564102595
48 5 0.00066773504273504307
48 6 0.0050213675213675174
48 7 -4.3368086899420177e-19
48 8 0.0026709401709401719
48 9 0.022008547008547003
48 10 -0.00040064102564102563
48 11 0.00066773504273504221
48 12 0.0050213675213675183
48 43 0.0016025641025641034
48 44 -4.3368086899420177e-19
48 45 0.025427350427350413
48 46 -1.7347234759768071e-18
48 47 0
48 48 0.1094017094017094
49 7 -0.00023148148148148179
49 8 -0.0020032051282051272
49 9 -0.00040064102564102557
49 10 0.0058048433048433004
49 11 5.4210108624275222e-20
49 12 0
49 13 -0.00023148148148148271
49 14 0.0020032051282051276
49 15 0.00040064102564102552
49 46 0.0044159544159544147
49 47 -3.7947076036992655e-19
49 48 -0.0016025641025641021
49 49 0.044586894586894577
50 7 -0.0020032051282051276
50 8 -0.001655982905982906
50 9 -0.0006677350427350434
50 10 -5.4210108624275222e-20
50 11 -0.0047008547008546998
50 12 -0.0026709401709401701
50 13 0.0020032051282051276
50 14 -0.0016559829059829051
50 15 -0.00066773504273504296
50 46 -3.2526065174565133e-19
50 47 0.012072649572649568
50 48 -8.6736173798840355e-19
50 49 0
50 50 0.055982905982905964
51 7 0.00040064102564102536
51 8 0.00066773504273504166
51 9 0.0050213675213675183
51 10 4.3368086899420177e-19
51 11 0.0026709401709401701
51 12 0.022008547008546986
51 13 -0.00040064102564102541
51 14 0.00066773504273504134
51 15 0.0050213675213675148
51 46 0.0016025641025641016
51 47 -4.3368086899420177e-19
51 48 0.02542735042735042
51 49 -8.6736173798840355e-19
51 50 -1.7347234759768071e-18
51 51 0.10940170940170935
52 10 -0.00023148148148148282
52 11 -0.0020032051282051276
52 12 -0.00040064102564102509
52 13 0.0058048433048433039
52 14 2.1684043449710089e-19
52 15 -4.3368086899420177e-19
52 16 -0.00023148148148148084
52 17 0.0020032051282051276
52 18 0.00040064102564102519
52 49 0.004415954415954406
52 50 -2.1684043449710089e-19
52 51 -0.0016025641025641014
52 52 0.04458689458689459
53 10 -0.0020032051282051276
53 11 -0.0016559829059829053
53 12 -0.00066773504273504231
53 13 1.0842021724855044e-19
53 14 -0.0047008547008546998
53 15 -0.0026709401709401697
53 16 0.0020032051282051276
53 17 -0.001655982905982906
53 18 -0.00066773504273504275
53 49 -5.4210108624275222e-20
53 50 0.012072649572649561
53 51 0
53 52 0
53 53 0.055982905982905985
54 10 0.00040064102564102584
54 11 0.00066773504273504221
54 12 0.0050213675213675148
54 13 -4.3368086899420177e-19
54 14 0.0026709401709401719
54 15 0.022008547008547007
54 16 -0.00040064102564102574
54 17 0.00066773504273504242
54 18 0.00502136752136752
54 49 0.0016025641025641025
54 50 4.3368086899420177e-19
54 51 0.025427350427350406
54 52 8.6736173798840355e-19
54 53 -1.7347234759768071e-18
54 54 0.10940170940170942
55 13 -0.00023148148148148135
55 14 -0.0020032051282051276
55 15 -0.00040064102564102563
55 16 0.0058048433048433021
55 17 -2.7105054312137611e-19
55 18 0
55 19 -0.00023148148148148271
55 20 0.002003205128205128
55 21 0.0004006410256410253
55 52 0.0044159544159544182
55 53 -2.1684043449710089e-19
55 54 -0.0016025641025641029
55 55 0.04458689458689459
56 13 -0.002003205128205128
56 14 -0.0016559829059829066
56 15 -0.00066773504273504394
56 16 -3.7947076036992655e-19
56 17 -0.0047008547008547032
56 18 -0.0026709401709401693
56 19 0.0020032051282051276
56 20 -0.0016559829059829073
56 21 -0.00066773504273504329
56 52 -2.7105054312137611e-19
56 53 0.012072649572649573
56 54 -2.1684043449710089e-18
56 55 -4.3368086899420177e-19
56 56 0.055982905982905978
57 13 0.00040064102564102552
57 14 0.00066773504273504156
57 15 0.00502136752136752
57 16 -4.3368086899420177e-19
57 17 0.0026709401709401736
57 18 0.022008547008547
57 19 -0.00040064102564102568
57 20 0.00066773504273504188
57 21 0.0050213675213675157
57 52 0.0016025641025641016
57 53 -2.1684043449710089e-18
57 54 0.025427350427350427
57 55 0
57 56 -7.8062556418956319e-18
57 57 0.1094017094017094
58 16 -0.00023148148148148182
58 17 -0.0020032051282051272
58 18 -0.00040064102564102541
58 19 0.0058048433048433021
58 20 -1.6263032587282567e-19
58 21 -4.3368086899420177e-19
58 22 -0.00023148148148148108
58 23 0.0020032051282051276
58 24 0.00040064102564102595
58 55 0.0044159544159544113
58 56 7.0473141211557788e-19
58 57 -0.0016025641025641021
58 58 0.044586894586894577
59 16 -0.0020032051282051276
59 17 -0.0016559829059829044
59 18 -0.00066773504273504286
59 19 0
59 20 -0.0047008547008547032
59 21 -0.0026709401709401701
59 22 0.0020032051282051272
59 23 -0.0016559829059829057
59 24 -0.00066773504273504275
59 55 9.2157184661267877e-19
59 56 0.012072649572649564
59 57 8.6736173798840355e-19
59 58 0
59 59 0.055982905982905978
60 16 0.00040064102564102563
60 17 0.00066773504273504134
60 18 0.0050213675213675183
60 19 -4.3368086899420177e-19
60 20 0.0026709401709401719
60 21 0.022008547008547007
60 22 -0.00040064102564102514
60 23 0.00066773504273504221
60 24 0.0050213675213675174
60 55 0.0016025641025641027
60 56 8.6736173798840355e-19
60 57 0.025427350427350406
60 58 -2.6020852139652106e-18
60 59 1.7347234759768071e-18
60 60 0.10940170940170939
61 19 -0.0002314814814814819
61 20 -0.0020032051282051276
61 21 -0.00040064102564102492
61 22 0.0058048433048433039
61 23 -1.0842021724855044e-19
61 24 0
61 25 -0.00023148148148148504
61 26 0.002003205128205128
61 27 0.00040064102564102503
61 58 0.0044159544159544173
61 59 -7.589415207398531e-19
61 60 -0.0016025641025641003
61 61 0.044586894586894583
62 19 -0.0020032051282051276
62 20 -0.0016559829059829083
62 21 -0.00066773504273504069
62 22 -2.1684043449710089e-19
62 23 -0.004700854700854698
62 24 -0.002670940170940171
62 25 0.0020032051282051276
62 26 -0.0016559829059829077
62 27 -0.00066773504273504069
62 58 -7.589415207398531e-19
62 59 0.012072649572649571
62 60 -4.3368086899420177e-19
62 61 -4.3368086899420177e-19
62 62 0.055982905982905978
63 19 0.00040064102564102606
63 20 0.0006677350427350447
63 21 0.0050213675213675183
63 22 0
63 23 0.002670940170940171
63 24 0.022008547008547003
63 25 -0.00040064102564102584
63 26 0.00066773504273504362
63 27 0.0050213675213675096
63 58 0.0016025641025641042
63 59 0
63 60 0.025427350427350413
63 61 -1.7347234759768071e-18
63 62 -8.6736173798840355e-18
63 63 0.10940170940170939
64 22 -0.00023148148148148407
64 23 -0.0020032051282051276
64 24 -0.00040064102564102574
64 25 0.0058048433048432978
64 26 -9.2157184661267877e-19
64 27 -8.6736173798840355e-19
64 28 -0.00023148148148148054
64 29 0.002003205128205128
64 30 0.0004006410256410266
64 61 0.0044159544159543965
64 62 9.7578195523695399e-19
64 63 -0.0016025641025641042
64 64 0.044586894586894549
65 22 -0.0020032051282051276
65 23 -0.0016559829059829034
65 24 -0.00066773504273504177
65 25 -8.1315162936412833e-19
65 26 -0.0047008547008547032
65 27 -0.002670940170940171
65 28 0.002003205128205128
65 29 -0.0016559829059829068
65 30 -0.00066773504273504741
65 61 1.0299920638612292e-18
65 62 0.012072649572649551
65 63 -4.3368086899420177e-18
65 64 -1.7347234759768071e-18
65 65 0.055982905982905937
66 22 0.00040064102564102519
66 23 0.00066773504273504069
66 24 0.0050213675213675096
66 25 -8.6736173798840355e-19
66 26 0.0026709401709401658
66 27 0.022008547008546979
66 28 -0.00040064102564102443
66 29 0.00066773504273503798
66 30 0.0050213675213675243
66 61 0.0016025641025641003
66 62 -6.0715321659188248e-18
66 63 0.025427350427350375
66 64 -3.4694469519536142e-18
66 65 4.3368086899420177e-18
66 66 0.10940170940170929
67 25 -0.00023148148148147962
67 26 -0.0020032051282051272
67 27 -0.00040064102564102411
67 28 0.0058048433048433047
67 29 3.2526065174565133e-19
67 30 -4.3368086899420177e-19
67 31 -0.00023148148148147905
67 32 0.0020032051282051272
67 33 0.00040064102564102449
67 64 0.0044159544159544217
67 65 1.0299920638612292e-18
67 66 -0.0016025641025640969
67 67 0.044586894586894597
68 25 -0.0020032051282051276
68 26 -0.0016559829059829027
68 27 -0.00066773504273504177
68 28 2.1684043449710089e-19
68 29 -0.0047008547008547024
68 30 -0.0026709401709401641
68 31 0.0020032051282051267
68 32 -0.0016559829059829027
68 33 -0.00066773504273503917
68 64 1.0842021724855044e-18
68 65 0.012072649572649575
68 66 6.5052130349130266e-18
68 67 4.3368086899420177e-19
68 68 0.055982905982906006
69 25 0.00040064102564102671
69 26 0.0006677350427350447
69 27 0.0050213675213675243
69 28 -4.3368086899420177e-19
69 29 0.0026709401709401801
69 30 0.022008547008547014
69 31 -0.00040064102564102622
69 32 0.00066773504273504741
69 33 0.0050213675213675243
69 64 0.0016025641025641068
69 65 3.4694469519536142e-18
69 66 0.025427350427350441
69 67 -1.7347234759768071e-18
69 68 -7.8062556418956319e-18
69 69 0.10940170940170947
70 28 -0.00023148148148148076
70 29 -0.0020032051282051276
70 30 -0.00040064102564102622
70 31 0.0058048433048433004
70 32 3.2526065174565133e-19
70 33 1.7347234759768071e-18
70 34 -0.00023148148148148409
70 35 0.0020032051282051276
70 36 0.00040064102564102514
70 67 0.0044159544159544243
70 68 -1.3552527156068805e-18
70 69 -0.0016025641025641053
70 70 0.044586894586894563
71 28 -0.0020032051282051276
71 29 -0.0016559829059829083
71 30 -0.00066773504273504275
71 31 1.6263032587282567e-19
71 32 -0.0047008547008547015
71 33 -0.0026709401709401749
71 34 0.0020032051282051272
71 35 -0.0016559829059829053
71 36 -0.00066773504273504101
71 67 -1.6263032587282567e-18
71 68 0.012072649572649578
71 69 -5.6378512969246231e-18
71 70 1.3010426069826053e-18
71 71 0.055982905982905957
72 28 0.00040064102564102465
72 29 0.00066773504273504264
72 30 0.0050213675213675226
72 31 1.7347234759768071e-18
72 32 0.0026709401709401654
72 33 0.022008547008546993
72 34 -0.0004006410256410259
72 35 0.00066773504273504101
72 36 0.0050213675213675113
72 67 0.0016025641025640986
72 68 -2.1684043449710089e-18
72 69 0.025427350427350441
72 70 4.3368086899420177e-18
72 71 3.4694469519536142e-18
72 72 0.10940170940170936
73 31 -0.00023148148148148431
73 32 -0.0020032051282051276
73 33 -0.0004006410256410259
73 34 0.0058048433048433056
73 35 3.7947076036992655e-19
73 36 8.6736173798840355e-19
73 37 -0.00023148148148147919
73 38 0.0020032051282051276
73 39 0.000400641025641024
73 70 0.0044159544159543991
73 71 -5.4210108624275222e-20
73 72 -0.0016025641025641032
73 73 0.04458689458689459
74 31 -0.002003205128205128
74 32 -0.001655982905982906
74 33 -0.00066773504273504383
74 34 4.3368086899420177e-19
74 35 -0.0047008547008546963
74 36 -0.0026709401709401658
74 37 0.0020032051282051272
74 38 -0.0016559829059829038
74 39 -0.00066773504273503787
74 70 -1.6263032587282567e-19
74 71 0.012072649572649551
74 72 2.6020852139652106e-18
74 73 1.3010426069826053e-18
74 74 0.055982905982905985
75 31 0.00040064102564102519
75 32 0.00066773504273504069
75 33 0.0050213675213675113
75 34 8.6736173798840355e-19
75 35 0.0026709401709401758
75 36 0.02200854700854701
75 37 -0.00040064102564102682
75 38 0.00066773504273504741
75 39 0.0050213675213675226
75 70 0.0016025641025641012
75 71 0
75 72 0.025427350427350379
75 73 6.0715321659188248e-18
75 74 -7.8062556418956319e-18
75 75 0.10940170940170943
76 34 -0.00023148148148148043
76 35 -0.0020032051282051272
76 36 -0.00040064102564102687
76 37 0.0029024216524216485
76 38 -0.00040064102564102536
76 39 -0.0020032051282051259
76 73 0.0044159544159544234
76 74 -1.1384122811097797e-18
76 75 -0.0016025641025641081
76 76 0.022293447293447288
77 34 -0.0020032051282051276
77 35 -0.0016559829059829077
77 36 -0.00066773504273504524
77 37 0.00040064102564102568
77 38 -0.0023504273504273542
77 39 -0.0013354700854700851
77 73 -1.0842021724855044e-18
77 74 0.012072649572649577
77 75 -8.6736173798840355e-19
77 76 1.7347234759768071e-18
77 77 0.027991452991452989
78 34 0.00040064102564102395
78 35 0.0006677350427350409
78 36 0.0050213675213675226
78 37 -0.0020032051282051259
78 38 0.0013354700854700855
78 39 0.011004273504273498
78 73 0.0016025641025640964
78 74 4.3368086899420177e-19
78 75 0.025427350427350434
78 76 -0.0080128205128205052
78 77 -7.8062556418956319e-18
78 78 0.054700854700854687
79 40 0.0029024216524216506
79 41 0.00040064102564102557
79 42 0.0020032051282051272
79 43 -0.00023148148148148165
79 44 0.0020032051282051276
79 45 0.00040064102564102525
79 79 0.022293447293447292
80 40 -0.00040064102564102557
80 41 -0.0023504273504273499
80 42 -0.0013354700854700851
80 43 0.0020032051282051272
80 44 -0.0016559829059829051
80 45 -0.0006677350427350421
80 79 -4.3368086899420177e-19
80 80 0.027991452991452986
81 40 0.0020032051282051272
81 41 0.0013354700854700857
81 42 0.011004273504273496
81 43 -0.00040064102564102563
81 44 0.00066773504273504253
81 45 0.0050213675213675191
81 79 0.0080128205128205121
81 80 0
81 81 0.054700854700854687
82 40 -0.0002314814814814816
82 41 -0.0020032051282051276
82 42 -0.00040064102564102519
82 43 0.0058048433048433013
82 44 -5.4210108624275222e-20
82 45 -4.3368086899420177e-19
82 46 -0.00023148148148148201
82 47 0.0020032051282051276
82 48 0.00040064102564102541
82 79 0.004415954415954413
82 80 -1.0842021724855044e-19
82 81 -0.0016025641025641029
82 82 0.04458689458689459
83 40 -0.0020032051282051276
83 41 -0.0016559829059829051
83 42 -0.0006677350427350421
83 43 -5.4210108624275222e-20
83 44 -0.0047008547008547015
83 45 -0.0026709401709401697
83 46 0.0020032051282051276
83 47 -0.0016559829059829057
83 48 -0.00066773504273504275
83 79 -5.4210108624275222e-20
83 80 0.012072649572649566
83 81 -8.6736173798840355e-19
83 82 0
83 83 0.055982905982905964
84 40 0.0004006410256410259
84 41 0.00066773504273504264
84 42 0.0050213675213675183
84 43 -4.3368086899420177e-19
84 44 0.0026709401709401719
84 45 0.022008547008546996
84 46 -0.00040064102564102536
84 47 0.00066773504273504188
84 48 0.0050213675213675165
84 79 0.0016025641025641029
84 80 -8.6736173798840355e-19
84 81 0.02542735042735042
84 82 -3.4694469519536142e-18
84 83 -4.3368086899420177e-18
84 84 0.10940170940170939
85 43 -0.00023148148148148206
85 44 -0.0020032051282051272
85 45 -0.00040064102564102487
85 46 0.0058048433048433021
85 47 2.1684043449710089e-19
85 48 -4.3368086899420177e-19
85 49 -0.00023148148148148165
85 50 0.0020032051282051276
85 51 0.00040064102564102514
85 82 0.004415954415954413
85 83 -2.7105054312137611e-19
85 84 -0.0016025641025641016
85 85 0.044586894586894597
86 43 -0.0020032051282051276
86 44 -0.0016559829059829057
86 45 -0.00066773504273504145
86 46 2.1684043449710089e-19
86 47 -0.0047008547008546998
86 48 -0.0026709401709401693
86 49 0.0020032051282051272
86 50 -0.0016559829059829051
86 51 -0.00066773504273504231
86 82 0
86 83 0.012072649572649566
86 84 -4.3368086899420177e-19
86 85 -4.3368086899420177e-19
86 86 0.055982905982905978
87 43 0.00040064102564102612
87 44 0.0006677350427350434
87 45 0.0050213675213675174
87 46 -4.3368086899420177e-19
87 47 0.0026709401709401727
87 48 0.022008547008547
87 49 -0.00040064102564102568
87 50 0.00066773504273504242
87 51 0.0050213675213675183
87 82 0.0016025641025641038
87 83 -8.6736173798840355e-19
87 84 0.02542735042735042
87 85 -1.7347234759768071e-18
87 86 -2.6020852139652106e-18
87 87 0.10940170940170944
88 46 -0.00023148148148148157
88 47 -0.0020032051282051272
88 48 -0.00040064102564102525
88 49 0.0058048433048433021
88 50 1.0842021724855044e-19
88 51 0
88 52 -0.00023148148148148301
88 53 0.0020032051282051276
88 54 0.00040064102564102541
88 85 0.0044159544159544147
88 86 -5.4210108624275222e-19
88 87 -0.0016025641025641025
88 88 0.044586894586894577
89 46 -0.0020032051282051276
89 47 -0.0016559829059829064
89 48 -0.00066773504273504296
89 49 1.6263032587282567e-19
89 50 -0.0047008547008546998
89 51 -0.0026709401709401693
89 52 0.0020032051282051276
89 53 -0.0016559829059829051
89 54 -0.00066773504273504253
89 85 -2.1684043449710089e-19
89 86 0.012072649572649568
89 87 -1.3010426069826053e-18
89 88 4.3368086899420177e-19
89 89 0.055982905982905964
90 46 0.00040064102564102563
90 47 0.00066773504273504199
90 48 0.0050213675213675183
90 49 -4.3368086899420177e-19
90 50 0.002670940170940171
90 51 0.022008547008546993
90 52 -0.00040064102564102563
90 53 0.00066773504273504166
90 54 0.0050213675213675148
90 85 0.0016025641025641025
90 86 -8.6736173798840355e-19
90 87 0.025427350427350427
90 88 -8.6736173798840355e-19
90 89 8.6736173798840355e-19
90 90 0.10940170940170939
91 49 -0.0002314814814814826
91 50 -0.0020032051282051272
91 51 -0.00040064102564102492
91 52 0.0058048433048433039
91 53 1.0842021724855044e-19
91 54 0
91 55 -0.00023148148148148106
91 56 0.0020032051282051276
91 57 0.00040064102564102514
91 88 0.0044159544159544078
91 89 -3.2526065174565133e-19
91 90 -0.0016025641025641021
91 91 0.044586894586894597
92 49 -0.0020032051282051276
92 50 -0.0016559829059829051
92 51 -0.00066773504273504177
92 52 0
92 53 -0.0047008547008546989
92 54 -0.002670940170940168
92 55 0.0020032051282051276
92 56 -0.0016559829059829057
92 57 -0.00066773504273504286
92 88 -5.4210108624275222e-20
92 89 0.012072649572649561
92 90 4.3368086899420177e-19
92 91 0
92 92 0.055982905982905985
93 49 0.0004006410256410259
93 50 0.00066773504273504275
93 51 0.0050213675213675157
93 52 0
93 53 0.0026709401709401732
93 54 0.022008547008547007
93 55 -0.0004006410256410259
93 56 0.00066773504273504231
93 57 0.0050213675213675209
93 88 0.0016025641025641029
93 89 4.3368086899420177e-19
93 90 0.025427350427350406
93 91 -8.6736173798840355e-19
93 92 0
93 93 0.10940170940170943
94 52 -0.00023148148148148138
94 53 -0.0020032051282051276
94 54 -0.00040064102564102552
94 55 0.0058048433048433021
94 56 5.4210108624275222e-20
94 57 -4.3368086899420177e-19
94 58 -0.0002314814814814826
94 59 0.002003205128205128
94 60 0.0004006410256410253
94 91 0.0044159544159544182
94 92 -3.7947076036992655e-19
94 93 -0.0016025641025641034
94 94 0.04458689458689459
95 52 -0.002003205128205128
95 53 -0.0016559829059829066
95 54 -0.00066773504273504405
95 55 -1.0842021724855044e-19
95 56 -0.0047008547008547032
95 57 -0.0026709401709401693
95 58 0.0020032051282051276
95 59 -0.001655982905982907
95 60 -0.00066773504273504307
95 91 -3.2526065174565133e-19
95 92 0.012072649572649575
95 93 -2.1684043449710089e-18
95 94 -4.3368086899420177e-19
95 95 0.055982905982905978
96 52 0.00040064102564102557
96 53 0.00066773504273504156
96 54 0.00502136752136752
96 55 -4.3368086899420177e-19
96 56 0.0026709401709401732
96 57 0.022008547008547
96 58 -0.00040064102564102574
96 59 0.0006677350427350421
96 60 0.0050213675213675157
96 91 0.0016025641025641021
96 92 -8.6736173798840355e-19
96 93 0.025427350427350431
96 94 -1.7347234759768071e-18
96 95 -7.8062556418956319e-18
96 96 0.10940170940170943
97 55 -0.00023148148148148168
97 56 -0.0020032051282051272
97 57 -0.0004006410256410253
97 58 0.0058048433048433021
97 59 2.1684043449710089e-19
97 60 -4.3368086899420177e-19
97 61 -0.00023148148148148114
97 62 0.0020032051282051272
97 63 0.00040064102564102579
97 94 0.0044159544159544113
97 95 7.0473141211557788e-19
97 96 -0.0016025641025641025
97 97 0.044586894586894597
98 55 -0.0020032051282051276
98 56 -0.001655982905982904
98 57 -0.00066773504273504264
98 58 0
98 59 -0.0047008547008547015
98 60 -0.0026709401709401697
98 61 0.0020032051282051272
98 62 -0.001655982905982906
98 63 -0.00066773504273504275
98 94 7.0473141211557788e-19
98 95 0.012072649572649564
98 96 8.6736173798840355e-19
98 97 0
98 98 0.055982905982905985
99 55 0.00040064102564102579
99 56 0.00066773504273504134
99 57 0.0050213675213675183
99 58 -8.6736173798840355e-19
99 59 0.0026709401709401732
99 60 0.022008547008547007
99 61 -0.0004006410256410253
99 62 0.00066773504273504231
99 63 0.0050213675213675183
99 94 0.0016025641025641034
99 95 4.3368086899420177e-19
99 96 0.025427350427350417
99 97 -3.4694469519536142e-18
99 98 -8.6736173798840355e-19
99 99 0.10940170940170943
100 58 -0.00023148148148148201
100 59 -0.0020032051282051276
100 60 -0.00040064102564102476
100 61 0.0058048433048433039
100 62 2.7105054312137611e-19
100 63 0
100 64 -0.00023148148148148534
100 65 0.0020032051282051276
100 66 0.00040064102564102476
100 97 0.0044159544159544173
100 98 -6.5052130349130266e-19
100 99 -0.0016025641025641012
100 100 0.04458689458689459
101 58 -0.0020032051282051276
101 59 -0.0016559829059829081
101 60 -0.00066773504273504058
101 61 1.6263032587282567e-19
101 62 -0.004700854700854698
101 63 -0.002670940170940171
101 64 0.0020032051282051276
101 65 -0.0016559829059829075
101 66 -0.00066773504273504047
101 97 -7.0473141211557788e-19
101 98 0.012072649572649571
101 99 -4.3368086899420177e-19
101 100 -1.3010426069826053e-18
101 101 0.055982905982905971
102 58 0.00040064102564102617
102 59 0.00066773504273504502
102 60 0.0050213675213675174
102 61 0
102 62 0.002670940170940171
102 63 0.022008547008547007
102 64 -0.00040064102564102606
102 65 0.00066773504273504372
102 66 0.0050213675213675087
102 97 0.0016025641025641042
102 98 4.3368086899420177e-19
102 99 0.025427350427350424
102 100 -2.6020852139652106e-18
102 101 -8.6736173798840355e-18
102 102 0.10940170940170942
103 61 -0.00023148148148148401
103 62 -0.0020032051282051276
103 63 -0.00040064102564102568
103 64 0.0058048433048432978
103 65 -5.4210108624275222e-19
103 66 -8.6736173798840355e-19
103 67 -0.0002314814814814807
103 68 0.002003205128205128
103 69 0.00040064102564102633
103 100 0.0044159544159543956
103 101 1.0842021724855044e-18
103 102 -0.0016025641025641042
103 103 0.044586894586894556
104 61 -0.0020032051282051272
104 62 -0.0016559829059829036
104 63 -0.00066773504273504145
104 64 -6.5052130349130266e-19
104 65 -0.0047008547008547032
104 66 -0.0026709401709401693
104 67 0.002003205128205128
104 68 -0.0016559829059829066
104 69 -0.00066773504273504687
104 100 1.1926223897340549e-18
104 101 0.012072649572649547
104 102 -5.2041704279304213e-18
104 103 -2.6020852139652106e-18
104 104 0.055982905982905937
105 61 0.0004006410256410253
105 62 0.0006677350427350408
105 63 0.0050213675213675105
105 64 -8.6736173798840355e-19
105 65 0.0026709401709401667
105 66 0.022008547008546979
105 67 -0.0004006410256410246
105 68 0.0006677350427350383
105 69 0.0050213675213675235
105 100 0.0016025641025641008
105 101 -6.9388939039072284e-18
105 102 0.025427350427350379
105 103 -3.4694469519536142e-18
105 104 5.2041704279304213e-18
105 105 0.10940170940170932
106 64 -0.0002314814814814794
106 65 -0.0020032051282051272
106 66 -0.00040064102564102395
106 67 0.0058048433048433056
106 68 3.7947076036992655e-19
106 69 0
106 70 -0.00023148148148147905
106 71 0.0020032051282051276
106 72 0.00040064102564102443
106 103 0.0044159544159544217
106 104 1.0299920638612292e-18
106 105 -0.0016025641025640977
106 106 0.044586894586894604
107 64 -0.0020032051282051272
107 65 -0.0016559829059829023
107 66 -0.00066773504273504123
107 67 2.1684043449710089e-19
107 68 -0.0047008547008547015
107 69 -0.0026709401709401628
107 70 0.0020032051282051272
107 71 -0.0016559829059829029
107 72 -0.00066773504273503917
107 103 1.2468324983583301e-18
107 104 0.012072649572649575
107 105 6.5052130349130266e-18
107 106 -4.3368086899420177e-19
107 107 0.055982905982906006
108 64 0.00040064102564102682
108 65 0.00066773504273504481
108 66 0.0050213675213675243
108 67 0
108 68 0.002670940170940181
108 69 0.022008547008547014
108 70 -0.00040064102564102633
108 71 0.00066773504273504774
108 72 0.0050213675213675243
108 103 0.0016025641025641071
108 104 3.903127820947816e-18
108 105 0.025427350427350448
108 106 -3.4694469519536142e-18
108 107 -6.9388939039072284e-18
108 108 0.1094017094017095
109 67 -0.00023148148148148068
109 68 -0.002003205128205128
109 69 -0.00040064102564102584
109 70 0.0058048433048433013
109 71 4.3368086899420177e-19
109 72 1.3010426069826053e-18
109 73 -0.00023148148148148442
109 74 0.0020032051282051276
109 75 0.00040064102564102509
109 106 0.0044159544159544251
109 107 -1.6263032587282567e-18
109 108 -0.001602564102564106
109 109 0.044586894586894583
110 67 -0.002003205128205128
110 68 -0.0016559829059829083
110 69 -0.00066773504273504264
110 70 4.3368086899420177e-19
110 71 -0.0047008547008547015
110 72 -0.0026709401709401745
110 73 0.0020032051282051276
110 74 -0.0016559829059829051
110 75 -0.00066773504273504101
110 106 -1.8973538018496328e-18
110 107 0.012072649572649578
110 108 -6.5052130349130266e-18
110 109 1.3010426069826053e-18
110 110 0.055982905982905964
111 67 0.00040064102564102498
111 68 0.00066773504273504275
111 69 0.0050213675213675226
111 70 4.3368086899420177e-19
111 71 0.0026709401709401658
111 72 0.022008547008546993
111 73 -0.00040064102564102595
111 74 0.00066773504273504101
111 75 0.0050213675213675113
111 106 0.0016025641025640995
111 107 -2.6020852139652106e-18
111 108 0.025427350427350448
111 109 1.7347234759768071e-18
111 110 0
111 111 0.10940170940170937
112 70 -0.00023148148148148428
112 71 -0.0020032051282051276
112 72 -0.00040064102564102552
112 73 0.0058048433048433056
112 74 4.3368086899420177e-19
112 75 1.3010426069826053e-18
112 76 -0.00023148148148147929
112 77 0.0020032051282051276
112 78 0.000400641025641024
112 109 0.0044159544159543982
112 110 -2.7105054312137611e-19
112 111 -0.0016025641025641038
112 112 0.044586894586894604
113 70 -0.0020032051282051276
113 71 -0.0016559829059829057
113 72 -0.00066773504273504351
113 73 5.9631119486702744e-19
113 74 -0.0047008547008546954
113 75 -0.0026709401709401645
113 76 0.0020032051282051272
113 77 -0.0016559829059829036
113 78 -0.00066773504273503733
113 109 -1.6263032587282567e-19
113 110 0.012072649572649551
113 111 1.7347234759768071e-18
113 112 0
113 113 0.055982905982905978
114 70 0.00040064102564102552
114 71 0.00066773504273504101
114 72 0.0050213675213675113
114 73 1.3010426069826053e-18
114 74 0.0026709401709401766
114 75 0.02200854700854701
114 76 -0.00040064102564102682
114 77 0.00066773504273504774
114 78 0.0050213675213675235
114 109 0.0016025641025641012
114 110 -8.6736173798840355e-19
114 111 0.025427350427350389
114 112 5.2041704279304213e-18
114 113 -9.540979117872439e-18
114 114 0.10940170940170946
115 73 -0.00023148148148148038
115 74 -0.0020032051282051276
115 75 -0.00040064102564102666
115 76 0.0029024216524216493
115 77 -0.0004006410256410253
115 78 -0.0020032051282051263
115 112 0.0044159544159544243
115 113 -1.1384122811097797e-18
115 114 -0.0016025641025641081
115 115 0.022293447293447292
116 73 -0.002003205128205128
116 74 -0.0016559829059829077
116 75 -0.00066773504273504513
116 76 0.00040064102564102579
116 77 -0.0023504273504273538
116 78 -0.0013354700854700848
116 112 -1.3552527156068805e-18
116 113 0.012072649572649578
116 114 -1.7347234759768071e-18
116 115 1.7347234759768071e-18
116 116 0.027991452991452993
117 73 0.00040064102564102443
117 74 0.00066773504273504112
117 75 0.0050213675213675235
117 76 -0.0020032051282051263
117 77 0.0013354700854700866
117 78 0.0110042735042735
117 112 0.0016025641025640969
117 113 4.3368086899420177e-19
117 114 0.025427350427350448
117 115 -0.0080128205128205086
117 116 -1.0408340855860843e-17
117 117 0.054700854700854715
118 79 0.0029024216524216541
118 80 0.00040064102564102579
118 81 0.002003205128205128
118 82 -0.00023148148148148157
118 83 0.0020032051282051276
118 84 0.00040064102564102509
118 118 0.022293447293447292
119 79 -0.00040064102564102536
119 80 -0.002350427350427346
119 81 -0.0013354700854700853
119 82 0.0020032051282051272
119 83 -0.0016559829059829036
119 84 -0.00066773504273504177
119 118 -4.3368086899420177e-19
119 119 0.027991452991452982
120 79 0.002003205128205128
120 80 0.0013354700854700855
120 81 0.011004273504273503
120 82 -0.00040064102564102606
120 83 0.00066773504273504275
120 84 0.0050213675213675191
120 118 0.0080128205128205121
120 119 8.6736173798840355e-19
120 120 0.054700854700854687
121 79 -0.00023148148148148122
121 80 -0.0020032051282051276
121 81 -0.00040064102564102541
121 82 0.0058048433048433065
121 83 1.0842021724855044e-19
121 84 0
121 85 -0.00023148148148148165
121 86 0.0020032051282051276
121 87 0.0004006410256410253
121 118 0.0044159544159544139
121 119 -1.6263032587282567e-19
121 120 -0.0016025641025641025
121 121 0.044586894586894583
122 79 -0.0020032051282051276
122 80 -0.0016559829059829034
122 81 -0.00066773504273504199
122 82 3.7947076036992655e-19
122 83 -0.0047008547008546937
122 84 -0.002670940170940168
122 85 0.0020032051282051276
122 86 -0.0016559829059829042
122 87 -0.00066773504273504253
122 118 0
122 119 0.012072649572649568
122 120 0
122 121 4.3368086899420177e-19
122 122 0.055982905982905971
123 79 0.00040064102564102579
123 80 0.00066773504273504264
123 81 0.00502136752136752
123 82 0
123 83 0.0026709401709401727
123 84 0.022008547008547
123 85 -0.00040064102564102579
123 86 0.00066773504273504242
123 87 0.0050213675213675191
123 118 0.0016025641025641034
123 119 4.3368086899420177e-19
123 120 0.02542735042735042
123 121 -8.6736173798840355e-19
123 122 -3.4694469519536142e-18
123 123 0.1094017094017094
124 82 -0.00023148148148148144
124 83 -0.0020032051282051276
124 84 -0.00040064102564102514
124 85 0.0058048433048433082
124 86 2.7105054312137611e-19
124 87 0
124 88 -0.00023148148148148073
124 89 0.0020032051282051276
124 90 0.00040064102564102509
124 121 0.0044159544159544147
124 122 -2.1684043449710089e-19
124 123 -0.0016025641025641012
124 124 0.04458689458689459
125 82 -0.0020032051282051276
125 83 -0.001655982905982904
125 84 -0.00066773504273504101
125 85 5.9631119486702744e-19
125 86 -0.0047008547008546928
125 87 -0.0026709401709401684
125 88 0.0020032051282051276
125 89 -0.0016559829059829029
125 90 -0.00066773504273504242
125 121 1.0842021724855044e-19
125 122 0.012072649572649568
125 123 -4.3368086899420177e-19
125 124 0
125 125 0.055982905982905992
126 82 0.00040064102564102617
126 83 0.00066773504273504362
126 84 0.0050213675213675191
126 85 0
126 86 0.0026709401709401736
126 87 0.022008547008547014
126 88 -0.00040064102564102617
126 89 0.00066773504273504275
126 90 0.0050213675213675209
126 121 0.0016025641025641038
126 122 -4.3368086899420177e-19
126 123 0.02542735042735042
126 124 -8.6736173798840355e-19
126 125 8.6736173798840355e-19
126 126 0.10940170940170943
127 85 -0.00023148148148148079
127 86 -0.0020032051282051272
127 87 -0.00040064102564102552
127 88 0.0058048433048433074
127 89 4.87890977618477e-19
127 90 4.3368086899420177e-19
127 91 -0.00023148148148148276
127 92 0.002003205128205128
127 93 0.00040064102564102525
127 124 0.0044159544159544173
127 125 -3.7947076036992655e-19
127 126 -0.0016025641025641023
127 127 0.044586894586894577
128 85 -0.0020032051282051272
128 86 -0.0016559829059829036
128 87 -0.00066773504273504296
128 88 2.7105054312137611e-19
128 89 -0.0047008547008546937
128 90 -0.0026709401709401684
128 91 0.0020032051282051276
128 92 -0.0016559829059829038
128 93 -0.00066773504273504221
128 124 -3.2526065174565133e-19
128 125 0.012072649572649571
128 126 -1.3010426069826053e-18
128 127 4.3368086899420177e-19
128 128 0.055982905982905971
129 85 0.00040064102564102574
129 86 0.00066773504273504221
129 87 0.0050213675213675209
129 88 0
129 89 0.0026709401709401723
129 90 0.022008547008547007
129 91 -0.00040064102564102601
129 92 0.00066773504273504188
129 93 0.0050213675213675174
129 124 0.0016025641025641029
129 125 0
129 126 0.025427350427350434
129 127 -8.6736173798840355e-19
129 128 -1.7347234759768071e-18
129 129 0.1094017094017094
130 88 -0.00023148148148148252
130 89 -0.0020032051282051276
130 90 -0.0004006410256410253
130 91 0.0058048433048433082
130 92 1.6263032587282567e-19
130 93 4.3368086899420177e-19
130 94 -0.00023148148148148081
130 95 0.002003205128205128
130 96 0.00040064102564102487
130 127 0.0044159544159544078
130 128 -1.6263032587282567e-19
130 129 -0.0016025641025641021
130 130 0.044586894586894597
131 88 -0.002003205128205128
131 89 -0.001655982905982904
131 90 -0.00066773504273504177
131 91 2.1684043449710089e-19
131 92 -0.0047008547008546946
131 93 -0.002670940170940168
131 94 0.0020032051282051276
131 95 -0.0016559829059829044
131 96 -0.00066773504273504253
131 127 0
131 128 0.012072649572649561
131 129 0
131 130 -4.3368086899420177e-19
131 131 0.055982905982905992
132 88 0.00040064102564102606
132 89 0.00066773504273504296
132 90 0.0050213675213675174
132 91 0
132 92 0.002670940170940174
132 93 0.022008547008547014
132 94 -0.00040064102564102628
132 95 0.00066773504273504275
132 96 0.0050213675213675226
132 127 0.0016025641025641034
132 128 -4.3368086899420177e-19
132 129 0.025427350427350406
132 130 8.6736173798840355e-19
132 131 -8.6736173798840355e-19
132 132 0.10940170940170946
133 91 -0.00023148148148148087
133 92 -0.0020032051282051276
133 93 -0.00040064102564102552
133 94 0.0058048433048433074
133 95 1.6263032587282567e-19
133 96 4.3368086899420177e-19
133 97 -0.00023148148148148266
133 98 0.002003205128205128
133 99 0.00040064102564102519
133 130 0.0044159544159544199
133 131 -3.2526065174565133e-19
133 132 -0.0016025641025641029
133 133 0.044586894586894597
134 91 -0.0020032051282051276
134 92 -0.0016559829059829051
134 93 -0.00066773504273504383
134 94 5.4210108624275222e-20
134 95 -0.0047008547008546963
134 96 -0.0026709401709401667
134 97 0.0020032051282051276
134 98 -0.001655982905982906
134 99 -0.00066773504273504318
134 130 -2.1684043449710089e-19
134 131 0.012072649572649575
134 132 -1.7347234759768071e-18
134 133 -4.3368086899420177e-19
134 134 0.055982905982905992
135 91 0.00040064102564102574
135 92 0.00066773504273504177
135 93 0.0050213675213675226
135 94 4.3368086899420177e-19
135 95 0.0026709401709401745
135 96 0.02200854700854701
135 97 -0.00040064102564102617
135 98 0.00066773504273504242
135 99 0.0050213675213675174
135 130 0.0016025641025641025
135 131 -1.7347234759768071e-18
135 132 0.025427350427350441
135 133 0
135 134 -6.9388939039072284e-18
135 135 0.10940170940170944
136 94 -0.00023148148148148144
136 95 -0.0020032051282051272
136 96 -0.00040064102564102541
136 97 0.0058048433048433056
136 98 1.6263032587282567e-19
136 99 0
136 100 -0.00023148148148148065
136 101 0.0020032051282051276
136 102 0.00040064102564102574
136 133 0.0044159544159544113
136 134 6.5052130349130266e-19
136 135 -0.0016025641025641021
136 136 0.04458689458689459
137 94 -0.0020032051282051276
137 95 -0.0016559829059829027
137 96 -0.0006677350427350421
137 97 2.1684043449710089e-19
137 98 -0.0047008547008546963
137 99 -0.002670940170940168
137 100 0.0020032051282051272
137 101 -0.0016559829059829044
137 102 -0.00066773504273504264
137 133 7.0473141211557788e-19
137 134 0.012072649572649566
137 135 1.3010426069826053e-18
137 136 4.3368086899420177e-19
137 137 0.055982905982905992
138 94 0.00040064102564102584
138 95 0.00066773504273504156
138 96 0.0050213675213675183
138 97 -4.3368086899420177e-19
138 98 0.0026709401709401736
138 99 0.022008547008547007
138 100 -0.00040064102564102546
138 101 0.00066773504273504253
138 102 0.00502136752136752
138 133 0.0016025641025641034
138 134 8.6736173798840355e-19
138 135 0.025427350427350413
138 136 -1.7347234759768071e-18
138 137 2.6020852139652106e-18
138 138 0.10940170940170942
139 97 -0.00023148148148148117
139 98 -0.0020032051282051276
139 99 -0.00040064102564102498
139 100 0.0058048433048433091
139 101 3.2526065174565133e-19
139 102 0
139 103 -0.00023148148148148523
139 104 0.002003205128205128
139 105 0.00040064102564102465
139 136 0.0044159544159544199
139 137 -9.2157184661267877e-19
139 138 -0.0016025641025641006
139 139 0.04458689458689459
140 97 -0.0020032051282051276
140 98 -0.0016559829059829066
140 99 -0.00066773504273504047
140 100 2.1684043449710089e-19
140 101 -0.0047008547008546911
140 102 -0.0026709401709401684
140 103 0.0020032051282051276
140 104 -0.001655982905982906
140 105 -0.00066773504273504015
140 136 -7.589415207398531e-19
140 137 0.012072649572649575
140 138 0
140 139 -4.3368086899420177e-19
140 140 0.055982905982905978
141 97 0.00040064102564102633
141 98 0.00066773504273504513
141 99 0.00502136752136752
141 100 0
141 101 0.0026709401709401719
141 102 0.02200854700854701
141 103 -0.00040064102564102633
141 104 0.00066773504273504383
141 105 0.0050213675213675105
141 136 0.0016025641025641051
141 137 8.6736173798840355e-19
141 138 0.025427350427350427
141 139 -3.4694469519536142e-18
141 140 -9.540979117872439e-18
141 141 0.10940170940170942
142 100 -0.00023148148148148363
142 101 -0.0020032051282051272
142 102 -0.00040064102564102563
142 103 0.0058048433048433021
142 104 -5.9631119486702744e-19
142 105 0
142 106 -0.0002314814814814803
142 107 0.0020032051282051276
142 108 0.00040064102564102639
142 139 0.0044159544159543956
142 140 9.7578195523695399e-19
142 141 -0.0016025641025641038
142 142 0.044586894586894556
143 100 -0.0020032051282051272
143 101 -0.0016559829059829021
143 102 -0.00066773504273504134
143 103 -3.7947076036992655e-19
143 104 -0.0047008547008546937
143 105 -0.0026709401709401697
143 106 0.002003205128205128
143 107 -0.0016559829059829051
143 108 -0.00066773504273504676
143 139 8.6736173798840355e-19
143 140 0.012072649572649549
143 141 -5.2041704279304213e-18
143 142 -2.1684043449710089e-18
143 143 0.055982905982905944
144 100 0.00040064102564102552
144 101 0.0006677350427350409
144 102 0.0050213675213675113
144 103 -4.3368086899420177e-19
144 104 0.0026709401709401675
144 105 0.022008547008546986
144 106 -0.00040064102564102492
144 107 0.00066773504273503863
144 108 0.0050213675213675261
144 139 0.0016025641025641012
144 140 -5.6378512969246231e-18
144 141 0.025427350427350379
144 142 -1.7347234759768071e-18
144 143 6.9388939039072284e-18
144 144 0.10940170940170932
145 103 -0.00023148148148147867
145 104 -0.0020032051282051272
145 105 -0.00040064102564102427
145 106 0.0058048433048433108
145 107 4.3368086899420177e-19
145 108 8.6736173798840355e-19
145 109 -0.00023148148148147821
145 110 0.0020032051282051272
145 111 0.00040064102564102449
145 142 0.0044159544159544234
145 143 1.0299920638612292e-18
145 144 -0.0016025641025640973
145 145 0.044586894586894604
146 103 -0.0020032051282051272
146 104 -0.0016559829059829005
146 105 -0.00066773504273504134
146 106 6.5052130349130266e-19
146 107 -0.0047008547008546928
146 108 -0.0026709401709401623
146 109 0.0020032051282051267
146 110 -0.0016559829059829001
146 111 -0.00066773504273503874
146 142 1.0842021724855044e-18
146 143 0.012072649572649578
146 144 6.0715321659188248e-18
146 145 8.6736173798840355e-19
146 146 0.055982905982906013
147 103 0.00040064102564102709
147 104 0.00066773504273504492
147 105 0.0050213675213675278
147 106 4.3368086899420177e-19
147 107 0.0026709401709401823
147 108 0.022008547008547028
147 109 -0.00040064102564102677
147 110 0.00066773504273504784
147 111 0.0050213675213675278
147 142 0.0016025641025641079
147 143 2.1684043449710089e-18
147 144 0.025427350427350448
147 145 -1.7347234759768071e-18
147 146 -9.540979117872439e-18
147 147 0.10940170940170951
148 106 -0.00023148148148147957
148 107 -0.0020032051282051276
148 108 -0.00040064102564102628
148 109 0.0058048433048433056
148 110 8.1315162936412833e-19
148 111 1.7347234759768071e-18
148 112 -0.00023148148148148423
148 113 0.002003205128205128
148 114 0.00040064102564102487
148 145 0.0044159544159544251
148 146 -1.6263032587282567e-18
148 147 -0.0016025641025641058
148 148 0.044586894586894577
149 106 -0.0020032051282051276
149 107 -0.001655982905982906
149 108 -0.00066773504273504264
149 109 4.87890977618477e-19
149 110 -0.0047008547008546928
149 111 -0.0026709401709401727
149 112 0.0020032051282051276
149 113 -0.001655982905982904
149 114 -0.00066773504273504069
149 145 -1.8973538018496328e-18
149 146 0.012072649572649582
149 147 -6.9388939039072284e-18
149 148 2.1684043449710089e-18
149 149 0.055982905982905964
150 106 0.00040064102564102492
150 107 0.00066773504273504286
150 108 0.0050213675213675261
150 109 8.6736173798840355e-19
150 110 0.0026709401709401667
150 111 0.022008547008547
150 112 -0.00040064102564102622
150 113 0.00066773504273504134
150 114 0.0050213675213675122
150 145 0.0016025641025640995
150 146 -2.6020852139652106e-18
150 147 0.025427350427350455
150 148 4.3368086899420177e-18
150 149 4.3368086899420177e-18
150 150 0.10940170940170939
151 109 -0.00023148148148148369
151 110 -0.0020032051282051276
151 111 -0.00040064102564102574
151 112 0.0058048433048433108
151 113 4.3368086899420177e-19
151 114 3.0357660829594124e-18
151 115 -0.00023148148148147854
151 116 0.0020032051282051276
151 117 0.00040064102564102389
151 148 0.0044159544159544
151 149 -5.4210108624275222e-20
151 150 -0.0016025641025641029
151 151 0.044586894586894597
152 109 -0.0020032051282051276
152 110 -0.0016559829059829042
152 111 -0.00066773504273504329
152 112 7.0473141211557788e-19
152 113 -0.0047008547008546876
152 114 -0.0026709401709401636
152 115 0.0020032051282051267
152 116 -0.001655982905982901
152 117 -0.00066773504273503744
152 148 -2.1684043449710089e-19
152 149 0.012072649572649554
152 150 2.6020852139652106e-18
152 151 1.3010426069826053e-18
152 152 0.055982905982905985
153 109 0.00040064102564102552
153 110 0.00066773504273504123
153 111 0.0050213675213675122
153 112 2.6020852139652106e-18
153 113 0.0026709401709401779
153 114 0.022008547008547021
153 115 -0.00040064102564102736
153 116 0.00066773504273504795
153 117 0.0050213675213675269
153 148 0.0016025641025641019
153 149 4.3368086899420177e-19
153 150 0.025427350427350393
153 151 6.0715321659188248e-18
153 152 -8.6736173798840355e-18
153 153 0.10940170940170946
154 112 -0.00023148148148147954
154 113 -0.0020032051282051272
154 114 -0.00040064102564102687
154 115 0.0029024216524216515
154 116 -0.00040064102564102519
154 117 -0.0020032051282051267
154 151 0.0044159544159544251
154 152 -1.1384122811097797e-18
154 153 -0.0016025641025641079
154 154 0.022293447293447295
155 112 -0.0020032051282051272
155 113 -0.0016559829059829055
155 114 -0.00066773504273504492
155 115 0.00040064102564102584
155 116 -0.0023504273504273503
155 117 -0.001335470085470084
155 151 -1.4094628242311558e-18
155 152 0.012072649572649578
155 153 -1.7347234759768071e-18
155 154 1.3010426069826053e-18
155 155 0.027991452991453
156 112 0.00040064102564102449
156 113 0.00066773504273504145
156 114 0.0050213675213675261
156 115 -0.0020032051282051267
156 116 0.0013354700854700874
156 117 0.011004273504273502
156 151 0.0016025641025640977
156 152 -4.3368086899420177e-19
156 153 0.025427350427350448
156 154 -0.0080128205128205086
156 155 -9.540979117872439e-18
156 156 0.054700854700854715
157 118 0.002902421652421648
157 119 0.00040064102564102541
157 120 0.0020032051282051267
157 121 -0.00023148148148148241
157 122 0.0020032051282051276
157 123 0.00040064102564102519
157 157 0.011146723646723642
158 118 -0.00040064102564102574
158 119 -0.0023504273504273538
158 120 -0.0013354700854700853
158 121 0.0020032051282051276
158 122 -0.001655982905982907
158 123 -0.00066773504273504231
158 157 -0.002003205128205128
158 158 0.013995726495726495
159 118 0.0020032051282051267
159 119 0.0013354700854700848
159 120 0.011004273504273489
159 121 -0.00040064102564102557
159 122 0.00066773504273504242
159 123 0.0050213675213675148
159 157 0.0040064102564102552
159 158 -0.0066773504273504253
159 159 0.027350427350427337
160 118 -0.0002314814814814823
160 119 -0.0020032051282051276
160 120 -0.00040064102564102536
160 121 0.0058048433048432978
160 122 5.4210108624275222e-20
160 123 -4.3368086899420177e-19
160 124 -0.00023148148148148268
160 125 0.0020032051282051276
160 126 0.00040064102564102541
160 157 0.0022079772079772069
160 158 0.00040064102564102563
160 159 -0.00080128205128205093
160 160 0.022293447293447288
161 118 -0.0020032051282051276
161 119 -0.0016559829059829068
161 120 -0.00066773504273504264
161 121 -5.4210108624275222e-20
161 122 -0.0047008547008547093
161 123 -0.0026709401709401714
161 124 0.0020032051282051276
161 125 -0.001655982905982907
161 126 -0.00066773504273504318
161 157 -0.00040064102564102563
161 158 0.0060363247863247848
161 159 -0.0033386752136752127
161 160 4.3368086899420177e-19
161 161 0.027991452991452989
162 118 0.0004006410256410253
162 119 0.00066773504273504253
162 120 0.0050213675213675157
162 121 -8.6736173798840355e-19
162 122 0.002670940170940171
162 123 0.022008547008546982
162 124 -0.0004006410256410253
162 125 0.00066773504273504199
162 126 0.0050213675213675148
162 157 0.00080128205128205147
162 158 -0.0033386752136752127
162 159 0.012713675213675207
162 160 -8.6736173798840355e-19
162 161 -0.013354700854700854
162 162 0.054700854700854694
163 121 -0.0002314814814814826
163 122 -0.0020032051282051276
163 123 -0.00040064102564102509
163 124 0.0058048433048432987
163 125 2.7105054312137611e-19
163 126 -4.3368086899420177e-19
163 127 -0.00023148148148148176
163 128 0.0020032051282051272
163 129 0.00040064102564102514
163 160 0.0022079772079772069
163 161 0.00040064102564102546
163 162 -0.00080128205128205017
163 163 0.022293447293447292
164 121 -0.0020032051282051276
164 122 -0.0016559829059829073
164 123 -0.00066773504273504166
164 124 2.7105054312137611e-19
164 125 -0.0047008547008547067
164 126 -0.0026709401709401701
164 127 0.0020032051282051272
164 128 -0.0016559829059829064
164 129 -0.00066773504273504286
164 160 -0.00040064102564102552
164 161 0.006036324786324784
164 162 -0.0033386752136752122
164 163 0
164 164 0.027991452991452989
165 121 0.00040064102564102546
165 122 0.00066773504273504329
165 123 0.0050213675213675148
165 124 -8.6736173798840355e-19
165 125 0.0026709401709401727
165 126 0.022008547008546993
165 127 -0.00040064102564102568
165 128 0.00066773504273504221
165 129 0.0050213675213675165
165 160 0.00080128205128205136
165 161 -0.0033386752136752127
165 162 0.012713675213675207
165 163 8.6736173798840355e-19
165 164 -0.013354700854700854
165 165 0.054700854700854701
166 124 -0.00023148148148148192
166 125 -0.0020032051282051272
166 126 -0.00040064102564102557
166 127 0.0058048433048432969
166 128 -1.6263032587282567e-19
166 129 -8.6736173798840355e-19
166 130 -0.00023148148148148396
166 131 0.002003205128205128
166 132 0.00040064102564102525
166 163 0.0022079772079772078
166 164 0.0004006410256410253
166 165 -0.00080128205128205115
166 166 0.022293447293447285
167 124 -0.0020032051282051276
167 125 -0.0016559829059829068
167 126 -0.00066773504273504362
167 127 -1.6263032587282567e-19
167 128 -0.0047008547008547067
167 129 -0.0026709401709401706
167 130 0.0020032051282051276
167 131 -0.0016559829059829073
167 132 -0.00066773504273504275
167 163 -0.00040064102564102568
167 164 0.0060363247863247857
167 165 -0.0033386752136752131
167 166 0
167 167 0.027991452991452982
168 124 0.00040064102564102509
168 125 0.00066773504273504188
168 126 0.0050213675213675157
168 127 -4.3368086899420177e-19
168 128 0.0026709401709401701
168 129 0.022008547008546982
168 130 -0.00040064102564102519
168 131 0.00066773504273504134
168 132 0.0050213675213675105
168 163 0.00080128205128205093
168 164 -0.0033386752136752135
168 165 0.012713675213675208
168 166 -1.7347234759768071e-18
168 167 -0.013354700854700849
168 168 0.05470085470085468
169 127 -0.0002314814814814839
169 128 -0.0020032051282051276
169 129 -0.00040064102564102503
169 130 0.0058048433048432987
169 131 5.4210108624275222e-20
169 132 -4.3368086899420177e-19
169 133 -0.00023148148148148146
169 134 0.0020032051282051276
169 135 0.00040064102564102492
169 166 0.002207977207977203
169 167 0.00040064102564102541
169 168 -0.00080128205128205006
169 169 0.022293447293447295
170 127 -0.0020032051282051276
170 128 -0.0016559829059829073
170 129 -0.00066773504273504242
170 130 2.1684043449710089e-19
170 131 -0.0047008547008547067
170 132 -0.0026709401709401701
170 133 0.0020032051282051272
170 134 -0.001655982905982907
170 135 -0.0006677350427350434
170 166 -0.00040064102564102563
170 167 0.0060363247863247796
170 168 -0.0033386752136752101
170 169 0
170 170 0.027991452991452989
171 127 0.00040064102564102541
171 128 0.00066773504273504221
171 129 0.0050213675213675113
171 130 -8.6736173798840355e-19
171 131 0.0026709401709401714
171 132 0.022008547008546993
171 133 -0.00040064102564102557
171 134 0.00066773504273504199
171 135 0.0050213675213675183
171 166 0.00080128205128205158
171 167 -0.0033386752136752105
171 168 0.012713675213675198
171 169 -8.6736173798840355e-19
171 170 -0.013354700854700852
171 171 0.054700854700854708
172 130 -0.00023148148148148171
172 131 -0.0020032051282051272
172 132 -0.00040064102564102552
172 133 0.0058048433048432978
172 134 -5.4210108624275222e-20
172 135 0
172 136 -0.00023148148148148344
172 137 0.002003205128205128
172 138 0.00040064102564102514
172 169 0.0022079772079772087
172 170 0.00040064102564102536
172 171 -0.00080128205128205125
172 172 0.022293447293447295
173 130 -0.0020032051282051276
173 131 -0.0016559829059829081
173 132 -0.00066773504273504459
173 133 -1.0842021724855044e-19
173 134 -0.0047008547008547084
173 135 -0.0026709401709401701
173 136 0.0020032051282051276
173 137 -0.0016559829059829088
173 138 -0.0006677350427350434
173 169 -0.00040064102564102568
173 170 0.0060363247863247874
173 171 -0.003338675213675214
173 172 -4.3368086899420177e-19
173 173 0.027991452991452996
174 130 0.00040064102564102498
174 131 0.00066773504273504112
174 132 0.0050213675213675174
174 133 0
174 134 0.0026709401709401727
174 135 0.022008547008546989
174 136 -0.00040064102564102552
174 137 0.0006677350427350421
174 138 0.0050213675213675139
174 169 0.0008012820512820506
174 170 -0.0033386752136752135
174 171 0.01271367521367521
174 172 2.6020852139652106e-18
174 173 -0.013354700854700858
174 174 0.054700854700854715
175 133 -0.0002314814814814826
175 134 -0.0020032051282051276
175 135 -0.00040064102564102536
175 136 0.0058048433048432969
175 137 -1.6263032587282567e-19
175 138 -4.3368086899420177e-19
175 139 -0.00023148148148148168
175 140 0.0020032051282051276
175 141 0.00040064102564102579
175 172 0.0022079772079772048
175 173 0.00040064102564102595
175 174 -0.00080128205128205234
175 175 0.022293447293447288
176 133 -0.0020032051282051276
176 134 -0.001655982905982906
176 135 -0.00066773504273504264
176 136 -5.4210108624275222e-20
176 137 -0.0047008547008547102
176 138 -0.002670940170940171
176 139 0.0020032051282051272
176 140 -0.001655982905982907
176 141 -0.00066773504273504329
176 172 -0.00040064102564102519
176 173 0.0060363247863247814
176 174 -0.0033386752136752114
176 175 4.3368086899420177e-19
176 176 0.027991452991452993
177 133 0.00040064102564102525
177 134 0.00066773504273504156
177 135 0.0050213675213675139
177 136 -8.6736173798840355e-19
177 137 0.0026709401709401727
177 138 0.022008547008546993
177 139 -0.00040064102564102498
177 140 0.00066773504273504221
177 141 0.0050213675213675165
177 172 0.00080128205128205017
177 173 -0.0033386752136752114
177 174 0.0127136752136752
177 175 0
177 176 -0.013354700854700852
177 177 0.054700854700854701
178 136 -0.00023148148148148252
178 137 -0.0020032051282051276
178 138 -0.00040064102564102492
178 139 0.0058048433048432987
178 140 -1.0842021724855044e-19
178 141 -8.6736173798840355e-19
178 142 -0.00023148148148148637
178 143 0.0020032051282051276
178 144 0.00040064102564102487
178 175 0.00220797720797721
178 176 0.00040064102564102514
178 177 -0.00080128205128205028
178 178 0.022293447293447288
179 136 -0.0020032051282051276
179 137 -0.0016559829059829103
179 138 -0.0006677350427350409
179 139 -1.0842021724855044e-19
179 140 -0.0047008547008547032
179 141 -0.0026709401709401719
179 142 0.0020032051282051276
179 143 -0.0016559829059829088
179 144 -0.00066773504273504058
179 175 -0.00040064102564102595
179 176 0.0060363247863247874
179 177 -0.0033386752136752131
179 178 0
179 179 0.027991452991452989
180 136 0.00040064102564102574
180 137 0.0006677350427350447
180 138 0.0050213675213675148
180 139 -4.3368086899420177e-19
180 140 0.0026709401709401693
180 141 0.022008547008546993
180 142 -0.00040064102564102563
180 143 0.0006677350427350434
180 144 0.0050213675213675044
180 175 0.0008012820512820519
180 176 -0.0033386752136752131
180 177 0.012713675213675212
180 178 8.6736173798840355e-19
180 179 -0.013354700854700856
180 180 0.054700854700854701
181 139 -0.00023148148148148512
181 140 -0.0020032051282051272
181 141 -0.00040064102564102568
181 142 0.0058048433048432926
181 143 -5.9631119486702744e-19
181 144 -1.3010426069826053e-18
181 145 -0.00023148148148148127
181 146 0.0020032051282051276
181 147 0.00040064102564102633
181 178 0.0022079772079772004
181 179 0.00040064102564102612
181 180 -0.00080128205128205299
181 181 0.022293447293447264
182 139 -0.0020032051282051272
182 140 -0.0016559829059829047
182 141 -0.00066773504273504188
182 142 -4.87890977618477e-19
182 143 -0.0047008547008547084
182 144 -0.0026709401709401701
182 145 0.0020032051282051276
182 146 -0.0016559829059829081
182 147 -0.00066773504273504676
182 178 -0.00040064102564102487
182 179 0.0060363247863247779
182 180 -0.0033386752136752092
182 181 -1.3010426069826053e-18
182 182 0.027991452991452954
183 139 0.00040064102564102481
183 140 0.00066773504273504047
183 141 0.0050213675213675044
183 142 -4.3368086899420177e-19
183 143 0.0026709401709401658
183 144 0.022008547008546958
183 145 -0.00040064102564102427
183 146 0.00066773504273503841
183 147 0.00502136752136752
183 178 0.00080128205128204854
183 179 -0.0033386752136752092
183 180 0.012713675213675195
183 181 -1.7347234759768071e-18
183 182 -0.013354700854700838
183 183 0.054700854700854618
184 142 -0.00023148148148147984
184 143 -0.0020032051282051272
184 144 -0.00040064102564102416
184 145 0.0058048433048433004
184 146 1.0842021724855044e-19
184 147 -4.3368086899420177e-19
184 148 -0.00023148148148147973
184 149 0.0020032051282051272
184 150 0.00040064102564102443
184 181 0.0022079772079772069
184 182 0.00040064102564102617
184 183 -0.00080128205128204616
184 184 0.022293447293447309
185 142 -0.0020032051282051272
185 143 -0.0016559829059829034
185 144 -0.00066773504273504166
185 145 2.1684043449710089e-19
185 146 -0.0047008547008547076
185 147 -0.0026709401709401636
185 148 0.0020032051282051272
185 149 -0.0016559829059829044
185 150 -0.00066773504273503917
185 181 -0.00040064102564102492
185 182 0.0060363247863247831
185 183 -0.0033386752136752109
185 184 0
185 185 0.027991452991453013
186 142 0.00040064102564102644
186 143 0.00066773504273504492
186 144 0.0050213675213675209
186 145 -4.3368086899420177e-19
186 146 0.0026709401709401814
186 147 0.022008547008547003
186 148 -0.00040064102564102633
186 149 0.0006677350427350473
186 150 0.0050213675213675217
186 181 0.00080128205128205592
186 182 -0.003338675213675214
186 183 0.012713675213675205
186 184 8.6736173798840355e-19
186 185 -0.013354700854700866
186 186 0.054700854700854777
187 145 -0.00023148148148148135
187 146 -0.0020032051282051276
187 147 -0.00040064102564102633
187 148 0.0058048433048432969
187 149 3.7947076036992655e-19
187 150 8.6736173798840355e-19
187 151 -0.00023148148148148461
187 152 0.0020032051282051276
187 153 0.00040064102564102503
187 184 0.0022079772079772173
187 185 0.00040064102564102465
187 186 -0.0008012820512820557
187 187 0.022293447293447274
188 145 -0.002003205128205128
188 146 -0.0016559829059829103
188 147 -0.00066773504273504296
188 148 1.6263032587282567e-19
188 149 -0.0047008547008547084
188 150 -0.0026709401709401762
188 151 0.0020032051282051276
188 152 -0.0016559829059829064
188 153 -0.00066773504273504156
188 184 -0.00040064102564102639
188 185 0.0060363247863247944
188 186 -0.0033386752136752183
188 187 1.3010426069826053e-18
188 188 0.027991452991452972
189 145 0.00040064102564102427
189 146 0.00066773504273504242
189 147 0.00502136752136752
189 148 1.3010426069826053e-18
189 149 0.0026709401709401645
189 150 0.022008547008546982
189 151 -0.00040064102564102579
189 152 0.0006677350427350409
189 153 0.0050213675213675087
189 184 0.00080128205128204616
189 185 -0.0033386752136752157
189 186 0.012713675213675233
189 187 2.6020852139652106e-18
189 188 -0.013354700854700847
189 189 0.054700854700854638
190 148 -0.0002314814814814848
190 149 -0.0020032051282051276
190 150 -0.00040064102564102557
190 151 0.0058048433048433004
190 152 2.7105054312137611e-19
190 153 8.6736173798840355e-19
190 154 -0.00023148148148148011
190 155 0.0020032051282051272
190 156 0.00040064102564102384
190 187 0.0022079772079771987
190 188 0.00040064102564102552
190 189 -0.00080128205128204768
190 190 0.022293447293447302
191 148 -0.002003205128205128
191 149 -0.0016559829059829066
191 150 -0.00066773504273504394
191 151 4.3368086899420177e-19
191 152 -0.0047008547008547032
191 153 -0.0026709401709401675
191 154 0.0020032051282051272
191 155 -0.0016559829059829055
191 156 -0.00066773504273503798
191 187 -0.00040064102564102568
191 188 0.0060363247863247753
191 189 -0.0033386752136752075
191 190 0
191 191 0.027991452991453003
192 148 0.00040064102564102509
192 149 0.0006677350427350409
192 150 0.0050213675213675087
192 151 8.6736173798840355e-19
192 152 0.0026709401709401753
192 153 0.022008547008547
192 154 -0.00040064102564102687
192 155 0.00066773504273504763
192 156 0.0050213675213675209
192 187 0.00080128205128205407
192 188 -0.0033386752136752092
192 189 0.012713675213675186
192 190 0
192 191 -0.013354700854700859
192 192 0.054700854700854736
193 151 -0.00023148148148148127
193 152 -0.0020032051282051276
193 153 -0.00040064102564102698
193 154 0.0029024216524216467
193 155 -0.00040064102564102519
193 156 -0.002003205128205125
193 190 0.002207977207977213
193 191 0.00040064102564102503
193 192 -0.00080128205128205364
193 193 0.011146723646723642
194 151 -0.0020032051282051276
194 152 -0.001655982905982909
194 153 -0.00066773504273504546
194 154 0.00040064102564102568
194 155 -0.0023504273504273586
194 156 -0.0013354700854700859
194 190 -0.00040064102564102601
194 191 0.0060363247863247892
194 192 -0.0033386752136752161
194 193 0.0020032051282051285
194 194 0.0139957264957265
195 151 0.00040064102564102373
195 152 0.0006677350427350408
195 153 0.00502136752136752
195 154 -0.002003205128205125
195 155 0.0013354700854700853
195 156 0.011004273504273491
195 190 0.00080128205128204833
195 191 -0.0033386752136752135
195 192 0.012713675213675222
195 193 -0.0040064102564102517
195 194 -0.0066773504273504314
195 195 0.027350427350427343
196 1 -0.0051103988603988593
196 2 0.0010016025641025634
196 3 0.00080128205128205125
196 4 -0.004237891737891737
196 5 0.00020032051282051262
196 6 0.0040064102564102552
196 40 -0.0038906695156695134
196 41 -0.00020032051282051273
196 42 0.00040064102564102557
196 43 -0.0027866809116809102
196 44 -0.0010016025641025636
196 45 0.0020032051282051272
196 196 0.022293447293447288
197 1 0.0010016025641025634
197 2 -0.0036858974358974362
197 3 0.0013354700854700851
197 4 -0.00020032051282051279
197 5 -0.0023237179487179483
197 6 0.00066773504273504242
197 40 0.00020032051282051271
197 41 -0.0065170940170940139
197 42 0.0066773504273504236
197 43 -0.0010016025641025636
197 44 -0.0034989316239316219
197 45 0.0033386752136752118
197 196 0.0040064102564102561
197 197 0.027991452991452982
198 1 -0.00080128205128205104
198 2 -0.0013354700854700848
198 3 -0.023717948717948707
198 4 0.0040064102564102552
198 5 -0.00066773504273504221
198 6 -0.012339743589743581
198 40 -0.00040064102564102536
198 41 0.0066773504273504253
198 42 -0.013194444444444437
198 43 0.0020032051282051272
198 44 0.0033386752136752118
198 45 -0.0068376068376068333
198 196 0
198 197 -2.6020852139652106e-18
198 198 0.054700854700854673
199 1 -0.004237891737891737
199 2 -0.00020032051282051271
199 3 -0.0040064102564102552
199 4 -0.01022079772079772
199 5 -2.1684043449710089e-19
199 6 -4.3368086899420177e-19
199 7 -0.0042378917378917396
199 8 0.00020032051282051271
199 9 0.0040064102564102561
199 40 -0.0027866809116809102
199 41 0.0010016025641025636
199 42 -0.0020032051282051272
199 43 -0.0077813390313390286
199 44 -8.1315162936412833e-20
199 45 5.4210108624275222e-20
199 46 -0.0027866809116809106
199 47 -0.0010016025641025636
199 48 0.0020032051282051276
199 196 0.0044159544159544113
199 197 -0.00080128205128205115
199 198 -4.3368086899420177e-19
199 199 0.044586894586894583
200 1 0.00020032051282051276
200 2 -0.0023237179487179483
200 3 0.00066773504273504253
200 4 -2.1684043449710089e-19
200 5 -0.0073717948717948734
200 6 0.0026709401709401693
200 7 -0.00020032051282051273
200 8 -0.00232371794871795
200 9 0.0006677350427350421
200 40 0.0010016025641025636
200 41 -0.0034989316239316219
200 42 0.0033386752136752118
200 43 -1.0842021724855044e-19
200 44 -0.01303418803418803
200 45 0.013354700854700849
200 46 -0.0010016025641025636
200 47 -0.0034989316239316223
200 48 0.0033386752136752118
200 196 0.00080128205128205147
200 197 0.012072649572649566
200 198 -4.3368086899420177e-19
200 199 -4.3368086899420177e-19
200 200 0.055982905982905964
201 1 -0.0040064102564102552
201 2 -0.00066773504273504221
201 3 -0.012339743589743582
201 4 -6.5052130349130266e-19
201 5 -0.002670940170940171
201 6 -0.047435897435897427
201 7 0.0040064102564102552
201 8 -0.00066773504273504318
201 9 -0.012339743589743589
201 40 -0.0020032051282051272
201 41 0.0033386752136752118
201 42 -0.0068376068376068333
201 43 -5.4210108624275222e-20
201 44 0.013354700854700852
201 45 -0.026388888888888878
201 46 0.0020032051282051276
201 47 0.0033386752136752122
201 48 -0.006837606837606835
201 196 -4.3368086899420177e-19
201 197 -4.3368086899420177e-19
201 198 0.025427350427350413
201 199 -8.6736173798840355e-19
201 200 -5.2041704279304213e-18
201 201 0.10940170940170937
202 4 -0.0042378917378917361
202 5 -0.00020032051282051265
202 6 -0.0040064102564102543
202 7 -0.01022079772079772
202 8 0
202 9 0
202 10 -0.0042378917378917361
202 11 0.00020032051282051265
202 12 0.0040064102564102552
202 43 -0.0027866809116809097
202 44 0.0010016025641025636
202 45 -0.0020032051282051272
202 46 -0.0077813390313390286
202 47 0
202 48 1.0842021724855044e-19
202 49 -0.0027866809116809102
202 50 -0.0010016025641025636
202 51 0.0020032051282051272
202 199 0.0044159544159544113
202 200 -0.00080128205128205082
202 201 1.0842021724855044e-18
202 202 0.044586894586894577
203 4 0.00020032051282051276
203 5 -0.0023237179487179465
203 6 0.00066773504273504199
203 7 -2.1684043449710089e-19
203 8 -0.0073717948717948716
203 9 0.0026709401709401701
203 10 -0.00020032051282051281
203 11 -0.0023237179487179483
203 12 0.00066773504273504253
203 43 0.0010016025641025636
203 44 -0.0034989316239316215
203 45 0.0033386752136752118
203 46 -8.1315162936412833e-20
203 47 -0.01303418803418803
203 48 0.013354700854700851
203 49 -0.0010016025641025636
203 50 -0.0034989316239316215
203 51 0.0033386752136752114
203 199 0.00080128205128205136
203 200 0.012072649572649566
203 201 -1.3010426069826053e-18
203 202 4.3368086899420177e-19
203 203 0.055982905982905971
204 4 -0.0040064102564102552
204 5 -0.00066773504273504275
204 6 -0.012339743589743581
204 7 3.2526065174565133e-19
204 8 -0.002670940170940171
204 9 -0.04743589743589742
204 10 0.0040064102564102543
204 11 -0.00066773504273504221
204 12 -0.012339743589743581
204 43 -0.0020032051282051272
204 44 0.0033386752136752118
204 45 -0.0068376068376068315
204 46 1.0842021724855044e-19
204 47 0.013354700854700852
204 48 -0.026388888888888878
204 49 0.0020032051282051267
204 50 0.0033386752136752118
204 51 -0.0068376068376068315
204 199 1.5178830414797062e-18
204 200 -1.3010426069826053e-18
204 201 0.025427350427350413
204 202 0
204 203 5.2041704279304213e-18
204 204 0.10940170940170937
205 7 -0.0042378917378917379
205 8 -0.00020032051282051284
205 9 -0.0040064102564102543
205 10 -0.010220797720797717
205 11 -2.1684043449710089e-19
205 12 2.1684043449710089e-19
205 13 -0.0042378917378917361
205 14 0.00020032051282051268
205 15 0.0040064102564102561
205 46 -0.0027866809116809106
205 47 0.0010016025641025634
205 48 -0.0020032051282051276
205 49 -0.0077813390313390268
205 50 -5.4210108624275222e-20
205 51 5.4210108624275222e-20
205 52 -0.0027866809116809102
205 53 -0.0010016025641025638
205 54 0.0020032051282051276
205 202 0.0044159544159544113
205 203 -0.00080128205128205147
205 204 -4.3368086899420177e-19
205 205 0.044586894586894577
206 7 0.00020032051282051262
206 8 -0.0023237179487179491
206 9 0.00066773504273504188
206 10 -2.1684043449710089e-19
206 11 -0.007371794871794869
206 12 0.0026709401709401697
206 13 -0.00020032051282051273
206 14 -0.002323717948717947
206 15 0.00066773504273504199
206 46 0.0010016025641025634
206 47 -0.0034989316239316219
206 48 0.0033386752136752118
206 49 0
206 50 -0.013034188034188026
206 51 0.013354700854700849
206 52 -0.0010016025641025638
206 53 -0.0034989316239316219
206 54 0.0033386752136752114
206 202 0.00080128205128205104
206 203 0.012072649572649564
206 204 1.3010426069826053e-18
206 205 4.3368086899420177e-19
206 206 0.055982905982905964
207 7 -0.0040064102564102552
207 8 -0.00066773504273504286
207 9 -0.012339743589743586
207 10 4.3368086899420177e-19
207 11 -0.002670940170940171
207 12 -0.04743589743589742
207 13 0.0040064102564102552
207 14 -0.00066773504273504231
207 15 -0.012339743589743577
207 46 -0.0020032051282051276
207 47 0.0033386752136752118
207 48 -0.006837606837606835
207 49 -5.4210108624275222e-20
207 50 0.013354700854700851
207 51 -0.026388888888888871
207 52 0.0020032051282051276
207 53 0.0033386752136752114
207 54 -0.0068376068376068324
207 202 -7.589415207398531e-19
207 203 8.6736173798840355e-19
207 204 0.025427350427350413
207 205 8.6736173798840355e-19
207 206 -2.6020852139652106e-18
207 207 0.10940170940170935
208 10 -0.004237891737891737
208 11 -0.00020032051282051273
208 12 -0.0040064102564102552
208 13 -0.01022079772079772
208 14 0
208 15 8.6736173798840355e-19
208 16 -0.004237891737891737
208 17 0.00020032051282051262
208 18 0.0040064102564102561
208 49 -0.0027866809116809093
208 50 0.0010016025641025636
208 51 -0.0020032051282051272
208 52 -0.0077813390313390294
208 53 0
208 54 4.3368086899420177e-19
208 55 -0.002786680911680911
208 56 -0.0010016025641025638
208 57 0.0020032051282051276
208 205 0.0044159544159544078
208 206 -0.00080128205128205082
208 207 -8.6736173798840355e-19
208 208 0.044586894586894583
209 10 0.00020032051282051276
209 11 -0.0023237179487179478
209 12 0.00066773504273504199
209 13 0
209 14 -0.0073717948717948716
209 15 0.0026709401709401719
209 16 -0.00020032051282051284
209 17 -0.0023237179487179496
209 18 0.00066773504273504275
209 49 0.0010016025641025636
209 50 -0.003498931623931621
209 51 0.0033386752136752105
209 52 8.1315162936412833e-20
209 53 -0.013034188034188031
209 54 0.013354700854700852
209 55 -0.0010016025641025638
209 56 -0.0034989316239316232
209 57 0.003338675213675214
209 205 0.00080128205128205125
209 206 0.012072649572649561
209 207 -1.3010426069826053e-18
209 208 8.6736173798840355e-19
209 209 0.055982905982905978
210 10 -0.0040064102564102561
210 11 -0.00066773504273504275
210 12 -0.012339743589743582
210 13 6.5052130349130266e-19
210 14 -0.002670940170940171
210 15 -0.047435897435897427
210 16 0.0040064102564102552
210 17 -0.00066773504273504199
210 18 -0.012339743589743586
210 49 -0.0020032051282051276
210 50 0.0033386752136752109
210 51 -0.0068376068376068307
210 52 1.6263032587282567e-19
210 53 0.013354700854700854
210 54 -0.026388888888888882
210 55 0.0020032051282051276
210 56 0.0033386752136752144
210 57 -0.0068376068376068359
210 205 -8.6736173798840355e-19
210 206 -1.3010426069826053e-18
210 207 0.025427350427350406
210 208 8.6736173798840355e-19
210 209 0
210 210 0.10940170940170937
211 13 -0.0042378917378917387
211 14 -0.00020032051282051279
211 15 -0.0040064102564102561
211 16 -0.01022079772079772
211 17 -2.1684043449710089e-19
211 18 -4.3368086899420177e-19
211 19 -0.0042378917378917387
211 20 0.00020032051282051281
211 21 0.0040064102564102561
211 52 -0.0027866809116809115
211 53 0.0010016025641025636
211 54 -0.002003205128205128
211 55 -0.0077813390313390303
211 56 2.7105054312137611e-20
211 57 3.2526065174565133e-19
211 58 -0.0027866809116809097
211 59 -0.0010016025641025636
211 60 0.0020032051282051272
211 208 0.0044159544159544182
211 209 -0.00080128205128205125
211 210 -5.4210108624275222e-19
211 211 0.044586894586894577
212 13 0.00020032051282051271
212 14 -0.00232371794871795
212 15 0.00066773504273504221
212 16 -2.1684043449710089e-19
212 17 -0.0073717948717948734
212 18 0.0026709401709401693
212 19 -0.00020032051282051252
212 20 -0.0023237179487179504
212 21 0.00066773504273504156
212 52 0.0010016025641025636
212 53 -0.0034989316239316236
212 54 0.003338675213675214
212 55 -1.0842021724855044e-19
212 56 -0.013034188034188033
212 57 0.013354700854700856
212 58 -0.0010016025641025636
212 59 -0.0034989316239316219
212 60 0.0033386752136752114
212 208 0.00080128205128205104
212 209 0.012072649572649571
212 210 -4.3368086899420177e-19
212 211 -4.3368086899420177e-19
212 212 0.055982905982905978
213 13 -0.0040064102564102561
213 14 -0.00066773504273504318
213 15 -0.012339743589743593
213 16 -3.2526065174565133e-19
213 17 -0.0026709401709401719
213 18 -0.047435897435897434
213 19 0.0040064102564102561
213 20 -0.00066773504273504351
213 21 -0.012339743589743589
213 52 -0.0020032051282051276
213 53 0.0033386752136752144
213 54 -0.0068376068376068385
213 55 3.7947076036992655e-19
213 56 0.013354700854700856
213 57 -0.026388888888888885
213 58 0.0020032051282051272
213 59 0.0033386752136752114
213 60 -0.0068376068376068333
213 208 -9.7578195523695399e-19
213 209 -8.6736173798840355e-19
213 210 0.025427350427350431
213 211 -8.6736173798840355e-19
213 212 -5.2041704279304213e-18
213 213 0.10940170940170939
214 16 -0.0042378917378917344
214 17 -0.00020032051282051246
214 18 -0.0040064102564102543
214 19 -0.010220797720797722
214 20 -2.1684043449710089e-19
214 21 -4.3368086899420177e-19
214 22 -0.0042378917378917396
214 23 0.00020032051282051249
214 24 0.0040064102564102561
214 55 -0.0027866809116809102
214 56 0.0010016025641025638
214 57 -0.0020032051282051276
214 58 -0.0077813390313390303
214 59 -5.4210108624275222e-20
214 60 -1.6263032587282567e-19
214 61 -0.0027866809116809123
214 62 -0.0010016025641025636
214 63 0.0020032051282051276
214 211 0.0044159544159544095
214 212 -0.00080128205128205028
214 213 1.6263032587282567e-18
214 214 0.044586894586894583
215 16 0.00020032051282051303
215 17 -0.0023237179487179452
215 18 0.00066773504273504275
215 19 -2.1684043449710089e-19
215 20 -0.0073717948717948716
215 21 0.0026709401709401701
215 22 -0.000200320512820513
215 23 -0.0023237179487179504
215 24 0.00066773504273504296
215 55 0.0010016025641025638
215 56 -0.0034989316239316223
215 57 0.0033386752136752122
215 58 -2.7105054312137611e-20
215 59 -0.013034188034188033
215 60 0.013354700854700854
215 61 -0.0010016025641025638
215 62 -0.0034989316239316249
215 63 0.0033386752136752148
215 211 0.0008012820512820519
215 212 0.012072649572649564
215 213 4.3368086899420177e-19
215 214 4.3368086899420177e-19
215 215 0.055982905982905978
216 16 -0.0040064102564102552
216 17 -0.00066773504273504156
216 18 -0.012339743589743575
216 19 -4.3368086899420177e-19
216 20 -0.0026709401709401727
216 21 -0.047435897435897434
216 22 0.0040064102564102552
216 23 -0.00066773504273504275
216 24 -0.012339743589743593
216 55 -0.0020032051282051276
216 56 0.0033386752136752122
216 57 -0.0068376068376068333
216 58 -1.6263032587282567e-19
216 59 0.013354700854700852
216 60 -0.026388888888888885
216 61 0.0020032051282051276
216 62 0.0033386752136752153
216 63 -0.0068376068376068402
216 211 1.8431436932253575e-18
216 212 1.7347234759768071e-18
216 213 0.025427350427350406
216 214 -3.4694469519536142e-18
216 215 -8.6736173798840355e-19
216 216 0.10940170940170939
217 19 -0.0042378917378917361
217 20 -0.00020032051282051298
217 21 -0.0040064102564102552
217 22 -0.010220797720797713
217 23 0
217 24 -4.3368086899420177e-19
217 25 -0.0042378917378917361
217 26 0.00020032051282051325
217 27 0.0040064102564102561
217 58 -0.0027866809116809102
217 59 0.0010016025641025636
217 60 -0.0020032051282051272
217 61 -0.007781339031339026
217 62 -1.8973538018496328e-19
217 63 3.2526065174565133e-19
217 64 -0.0027866809116809071
217 65 -0.0010016025641025636
217 66 0.0020032051282051272
217 214 0.0044159544159544182
217 215 -0.0008012820512820519
217 216 1.951563910473908e-18
217 217 0.044586894586894563
218 19 0.00020032051282051254
218 20 -0.0023237179487179461
218 21 0.0006677350427350408
218 22 0
218 23 -0.0073717948717948699
218 24 0.0026709401709401684
218 25 -0.00020032051282051238
218 26 -0.0023237179487179487
218 27 0.00066773504273503841
218 58 0.0010016025641025636
218 59 -0.0034989316239316223
218 60 0.0033386752136752131
218 61 -1.6263032587282567e-19
218 62 -0.013034188034188026
218 63 0.013354700854700847
218 64 -0.0010016025641025636
218 65 -0.0034989316239316163
218 66 0.0033386752136752079
218 214 0.00080128205128205028
218 215 0.012072649572649575
218 216 -2.6020852139652106e-18
218 217 -1.3010426069826053e-18
218 218 0.055982905982905944
219 19 -0.0040064102564102552
219 20 -0.00066773504273504437
219 21 -0.012339743589743581
219 22 -1.1926223897340549e-18
219 23 -0.0026709401709401693
219 24 -0.047435897435897406
219 25 0.0040064102564102561
219 26 -0.0006677350427350447
219 27 -0.012339743589743579
219 58 -0.0020032051282051272
219 59 0.0033386752136752127
219 60 -0.0068376068376068333
219 61 0
219 62 0.013354700854700845
219 63 -0.026388888888888871
219 64 0.0020032051282051272
219 65 0.0033386752136752083
219 66 -0.0068376068376068255
219 214 2.1684043449710089e-18
219 215 -2.1684043449710089e-18
219 216 0.025427350427350424
219 217 -5.2041704279304213e-18
219 218 8.6736173798840355e-18
219 219 0.10940170940170933
220 22 -0.0042378917378917335
220 23 -0.0002003205128205123
220 24 -0.0040064102564102543
220 25 -0.010220797720797713
220 26 -1.0842021724855044e-18
220 27 -3.2526065174565133e-19
220 28 -0.004237891737891737
220 29 0.00020032051282051303
220 30 0.0040064102564102552
220 61 -0.0027866809116809097
220 62 0.001001602564102564
220 63 -0.0020032051282051276
220 64 -0.007781339031339026
220 65 -4.6078592330633938e-19
220 66 -1.0842021724855044e-19
220 67 -0.0027866809116809128
220 68 -0.0010016025641025636
220 69 0.002003205128205128
220 217 0.0044159544159543974
220 218 -0.00080128205128204952
220 219 1.4094628242311558e-18
220 220 0.044586894586894577
221 22 0.00020032051282051322
221 23 -0.0023237179487179452
221 24 0.00066773504273504307
221 25 -8.6736173798840355e-19
221 26 -0.0073717948717948699
221 27 0.0026709401709401675
221 28 -0.00020032051282051235
221 29 -0.0023237179487179478
221 30 0.00066773504273504253
221 61 0.0010016025641025638
221 62 -0.0034989316239316215
221 63 0.0033386752136752109
221 64 -5.4210108624275222e-19
221 65 -0.013034188034188026
221 66 0.013354700854700845
221 67 -0.0010016025641025636
221 68 -0.0034989316239316241
221 69 0.0033386752136752135
221 217 0.0008012820512820531
221 218 0.012072649572649547
221 219 -6.0715321659188248e-18
221 220 -3.0357660829594124e-18
221 221 0.055982905982905951
222 22 -0.0040064102564102552
222 23 -0.00066773504273504025
222 24 -0.012339743589743567
222 25 -4.3368086899420177e-19
222 26 -0.0026709401709401706
222 27 -0.047435897435897406
222 28 0.0040064102564102552
222 29 -0.00066773504273504307
222 30 -0.012339743589743586
222 61 -0.0020032051282051276
222 62 0.0033386752136752109
222 63 -0.0068376068376068324
222 64 -1.0842021724855044e-19
222 65 0.013354700854700845
222 66 -0.026388888888888871
222 67 0.002003205128205128
222 68 0.0033386752136752127
222 69 -0.0068376068376068419
222 217 1.1926223897340549e-18
222 218 -5.2041704279304213e-18
222 219 0.025427350427350386
222 220 -8.6736173798840355e-19
222 221 -5.2041704279304213e-18
222 222 0.10940170940170935
223 25 -0.004237891737891737
223 26 -0.00020032051282051233
223 27 -0.0040064102564102552
223 28 -0.010220797720797724
223 29 -2.1684043449710089e-19
223 30 -1.0842021724855044e-19
223 31 -0.0042378917378917387
223 32 0.00020032051282051227
223 33 0.0040064102564102561
223 64 -0.0027866809116809089
223 65 0.0010016025641025638
223 66 -0.0020032051282051267
223 67 -0.0077813390313390338
223 68 -2.7105054312137611e-20
223 69 5.4210108624275222e-20
223 70 -0.0027866809116809102
223 71 -0.0010016025641025638
223 72 0.0020032051282051267
223 220 0.0044159544159544165
223 221 -0.00080128205128204974
223 222 -7.589415207398531e-19
223 223 0.04458689458689459
224 25 0.00020032051282051311
224 26 -0.0023237179487179487
224 27 0.000667735042735046
224 28 -2.1684043449710089e-19
224 29 -0.0073717948717948734
224 30 0.002670940170940171
224 31 -0.00020032051282051319
224 32 -0.0023237179487179509
224 33 0.00066773504273504502
224 64 0.001001602564102564
224 65 -0.0034989316239316215
224 66 0.0033386752136752122
224 67 -2.7105054312137611e-20
224 68 -0.013034188034188035
224 69 0.013354700854700863
224 70 -0.001001602564102564
224 71 -0.0034989316239316236
224 72 0.0033386752136752144
224 220 0.00080128205128205256
224 221 0.012072649572649575
224 222 5.6378512969246231e-18
224 223 4.3368086899420177e-19
224 224 0.055982905982905999
225 25 -0.0040064102564102561
225 26 -0.0006677350427350395
225 27 -0.012339743589743589
225 28 0
225 29 -0.0026709401709401732
225 30 -0.047435897435897434
225 31 0.0040064102564102561
225 32 -0.00066773504273504047
225 33 -0.012339743589743598
225 64 -0.0020032051282051267
225 65 0.0033386752136752127
225 66 -0.0068376068376068281
225 67 1.0842021724855044e-19
225 68 0.013354700854700863
225 69 -0.026388888888888892
225 70 0.0020032051282051272
225 71 0.0033386752136752144
225 72 -0.0068376068376068324
225 220 -4.3368086899420177e-19
225 221 5.6378512969246231e-18
225 222 0.02542735042735042
225 223 -2.6020852139652106e-18
225 224 -8.6736173798840355e-18
225 225 0.1094017094017094
226 28 -0.0042378917378917344
226 29 -0.00020032051282051317
226 30 -0.0040064102564102535
226 31 -0.010220797720797717
226 32 2.1684043449710089e-19
226 33 1.7347234759768071e-18
226 34 -0.0042378917378917275
226 35 0.00020032051282051276
226 36 0.0040064102564102535
226 67 -0.0027866809116809123
226 68 0.0010016025641025634
226 69 -0.0020032051282051276
226 70 -0.0077813390313390268
226 71 8.1315162936412833e-20
226 72 8.6736173798840355e-19
226 73 -0.0027866809116809089
226 74 -0.0010016025641025638
226 75 0.0020032051282051276
226 223 0.0044159544159544182
226 224 -0.00080128205128205288
226 225 3.1441863002079629e-18
226 226 0.044586894586894577
227 28 0.00020032051282051233
227 29 -0.0023237179487179457
227 30 0.00066773504273504047
227 31 2.1684043449710089e-19
227 32 -0.0073717948717948716
227 33 0.002670940170940171
227 34 -0.00020032051282051273
227 35 -0.0023237179487179392
227 36 0.00066773504273504145
227 67 0.0010016025641025634
227 68 -0.0034989316239316241
227 69 0.0033386752136752148
227 70 1.6263032587282567e-19
227 71 -0.01303418803418803
227 72 0.013354700854700845
227 73 -0.0010016025641025638
227 74 -0.0034989316239316189
227 75 0.0033386752136752092
227 223 0.0008012820512820493
227 224 0.012072649572649573
227 225 -2.1684043449710089e-18
227 226 2.6020852139652106e-18
227 227 0.055982905982905957
228 28 -0.0040064102564102543
228 29 -0.0006677350427350447
228 30 -0.012339743589743579
228 31 1.0842021724855044e-18
228 32 -0.0026709401709401671
228 33 -0.04743589743589742
228 34 0.0040064102564102535
228 35 -0.00066773504273504166
228 36 -0.012339743589743546
228 67 -0.0020032051282051276
228 68 0.003338675213675214
228 69 -0.0068376068376068437
228 70 6.5052130349130266e-19
228 71 0.013354700854700845
228 72 -0.026388888888888878
228 73 0.0020032051282051272
228 74 0.0033386752136752088
228 75 -0.0068376068376068281
228 223 2.927345865710862e-18
228 224 -1.7347234759768071e-18
228 225 0.025427350427350427
228 226 5.2041704279304213e-18
228 227 7.8062556418956319e-18
228 228 0.10940170940170936
229 31 -0.0042378917378917431
229 32 -0.00020032051282051281
229 33 -0.0040064102564102578
229 34 -0.010220797720797717
229 35 2.1684043449710089e-19
229 36 4.0115480381963664e-18
229 37 -0.0042378917378917327
229 38 0.00020032051282051219
229 39 0.0040064102564102543
229 70 -0.0027866809116809093
229 71 0.0010016025641025636
229 72 -0.0020032051282051276
229 73 -0.0077813390313390286
229 74 2.7105054312137611e-19
229 75 1.0842021724855044e-18
229 76 -0.0027866809116809093
229 77 -0.0010016025641025638
229 78 0.0020032051282051267
229 226 0.0044159544159543991
229 227 -0.00080128205128205115
229 228 -8.1315162936412833e-18
229 229 0.044586894586894577
230 31 0.00020032051282051273
230 32 -0.0023237179487179552
230 33 0.00066773504273504231
230 34 4.3368086899420177e-19
230 35 -0.0073717948717948699
230 36 0.0026709401709401727
230 37 -0.00020032051282051325
230 38 -0.0023237179487179431
230 39 0.00066773504273504589
230 70 0.0010016025641025636
230 71 -0.0034989316239316197
230 72 0.0033386752136752088
230 73 1.0842021724855044e-19
230 74 -0.01303418803418803
230 75 0.013354700854700852
230 76 -0.0010016025641025638
230 77 -0.0034989316239316232
230 78 0.0033386752136752144
230 226 0.00080128205128205104
230 227 0.012072649572649554
230 228 4.3368086899420177e-19
230 229 2.6020852139652106e-18
230 230 0.055982905982905971
231 31 -0.0040064102564102578
231 32 -0.00066773504273504231
231 33 -0.012339743589743603
231 34 4.1199682554449168e-18
231 35 -0.0026709401709401667
231 36 -0.04743589743589742
231 37 0.0040064102564102535
231 38 -0.00066773504273503971
231 39 -0.012339743589743572
231 70 -0.0020032051282051276
231 71 0.0033386752136752092
231 72 -0.0068376068376068315
231 73 1.1384122811097797e-18
231 74 0.013354700854700852
231 75 -0.026388888888888878
231 76 0.0020032051282051267
231 77 0.0033386752136752135
231 78 -0.0068376068376068298
231 226 -8.2399365108898337e-18
231 227 -2.1684043449710089e-18
231 228 0.025427350427350393
231 229 1.214306433183765e-17
231 230 -5.2041704279304213e-18
231 231 0.10940170940170936
232 34 -0.0042378917378917439
232 35 -0.00020032051282051317
232 36 -0.0040064102564102561
232 37 -0.0051103988603988645
232 38 -0.0010016025641025631
232 39 -0.00080128205128204995
232 73 -0.0027866809116809136
232 74 0.0010016025641025634
232 75 -0.002003205128205128
232 76 -0.0038906695156695182
232 77 0.00020032051282051298
232 78 -0.00040064102564102471
232 229 0.0044159544159544225
232 230 -0.00080128205128205331
232 231 -5.3125906451789717e-18
232 232 0.022293447293447295
233 34 0.00020032051282051219
233 35 -0.0023237179487179543
233 36 0.00066773504273504156
233 37 -0.0010016025641025631
233 38 -0.0036858974358974401
233 39 0.0013354700854700844
233 73 0.0010016025641025634
233 74 -0.0034989316239316254
233 75 0.0033386752136752148
233 76 -0.00020032051282051249
233 77 -0.00651709401709402
233 78 0.0066773504273504288
233 229 0.00080128205128204909
233 230 0.012072649572649582
233 231 -8.6736173798840355e-19
233 232 -0.0040064102564102535
233 233 0.027991452991452996
234 34 -0.0040064102564102569
234 35 -0.00066773504273504502
234 36 -0.012339743589743614
234 37 0.00080128205128205245
234 38 -0.0013354700854700859
234 39 -0.023717948717948731
234 73 -0.002003205128205128
234 74 0.0033386752136752153
234 75 -0.0068376068376068497
234 76 0.00040064102564102622
234 77 0.0066773504273504305
234 78 -0.01319444444444445
234 229 -5.6378512969246231e-18
234 230 -3.4694469519536142e-18
234 231 0.025427350427350434
234 232 5.2041704279304213e-18
234 233 -8.6736173798840355e-18
234 234 0.054700854700854729
235 1 -0.0038906695156695134
235 2 0.00020032051282051273
235 3 0.00040064102564102552
235 4 -0.0027866809116809102
235 5 0.0010016025641025636
235 6 0.0020032051282051272
235 40 -0.010220797720797719
235 41 -2.1684043449710089e-19
235 42 0.0016025641025641021
235 43 -0.008475783475783474
235 44 -8.1315162936412833e-20
235 45 0.0080128205128205121
235 79 -0.0038906695156695143
235 80 -0.00020032051282051273
235 81 0.00040064102564102552
235 82 -0.0027866809116809106
235 83 -0.0010016025641025636
235 84 0.0020032051282051276
235 196 0.0058048433048433013
235 197 0.00080128205128205082
235 198 0
235 199 -0.00046296296296296428
235 200 0.0040064102564102561
235 201 -1.0842021724855044e-19
235 235 0.044586894586894577
236 1 -0.00020032051282051273
236 2 -0.0065170940170940139
236 3 -0.0066773504273504236
236 4 0.0010016025641025634
236 5 -0.0034989316239316215
236 6 -0.0033386752136752118
236 40 -2.1684043449710089e-19
236 41 -0.0073717948717948716
236 42 0
236 43 5.4210108624275222e-20
236 44 -0.0046474358974358965
236 45 -2.1684043449710089e-19
236 79 0.00020032051282051271
236 80 -0.0065170940170940139
236 81 0.0066773504273504244
236 82 -0.0010016025641025638
236 83 -0.0034989316239316219
236 84 0.0033386752136752118
236 196 -0.00080128205128205125
236 197 -0.0047008547008547006
236 198 2.1684043449710089e-19
236 199 0.0040064102564102561
236 200 -0.003311965811965811
236 201 -2.1684043449710089e-19
236 235 0
236 236 0.055982905982905964
237 1 -0.00040064102564102546
237 2 -0.0066773504273504236
237 3 -0.013194444444444437
237 4 0.0020032051282051272
237 5 -0.0033386752136752114
237 6 -0.0068376068376068324
237 40 -0.0016025641025641021
237 41 0
237 42 -0.047435897435897406
237 43 0.0080128205128205104
237 44 1.0842021724855044e-19
237 45 -0.024679487179487168
237 79 -0.00040064102564102541
237 80 0.0066773504273504253
237 81 -0.013194444444444439
237 82 0.0020032051282051276
237 83 0.0033386752136752118
237 84 -0.0068376068376068341
237 196 -4.3368086899420177e-19
237 197 -8.6736173798840355e-19
237 198 0.022008547008546993
237 199 -1.6263032587282567e-19
237 200 -2.1684043449710089e-19
237 201 0.010042735042735035
237 235 0
237 236 -1.7347234759768071e-18
237 237 0.10940170940170935
238 1 -0.0027866809116809102
238 2 -0.0010016025641025636
238 3 -0.0020032051282051272
238 4 -0.0077813390313390268
238 5 5.4210108624275222e-20
238 6 -1.0842021724855044e-19
238 7 -0.0027866809116809106
238 8 0.0010016025641025636
238 9 0.0020032051282051276
238 40 -0.0084757834757834723
238 41 5.4210108624275222e-20
238 42 -0.0080128205128205104
238 43 -0.020441595441595441
238 44 -2.1684043449710089e-19
238 45 -2.1684043449710089e-19
238 46 -0.0084757834757834757
238 47 -5.4210108624275222e-20
238 48 0.0080128205128205121
238 79 -0.0027866809116809102
238 80 0.0010016025641025636
238 81 -0.0020032051282051276
238 82 -0.0077813390313390294
238 83 -2.7105054312137611e-20
238 84 0
238 85 -0.002786680911680911
238 86 -0.0010016025641025636
238 87 0.0020032051282051276
238 196 -0.00046296296296296428
238 197 -0.0040064102564102552
238 198 1.6263032587282567e-19
238 199 0.011609686609686604
238 200 -5.4210108624275222e-20
238 201 -8.6736173798840355e-19
238 202 -0.00046296296296296374
238 203 0.0040064102564102552
238 204 2.1684043449710089e-19
238 235 0.0088319088319088225
238 236 -2.1684043449710089e-19
238 237 -5.4210108624275222e-19
238 238 0.089173789173789153
239 1 -0.0010016025641025636
239 2 -0.0034989316239316219
239 3 -0.0033386752136752122
239 4 5.4210108624275222e-20
239 5 -0.01303418803418803
239 6 -0.013354700854700849
239 7 0.0010016025641025636
239 8 -0.0034989316239316219
239 9 -0.0033386752136752122
239 40 2.7105054312137611e-20
239 41 -0.0046474358974358965
239 42 -2.1684043449710089e-19
239 43 -2.1684043449710089e-19
239 44 -0.014743589743589747
239 45 -2.1684043449710089e-18
239 46 -5.4210108624275222e-20
239 47 -0.0046474358974358983
239 48 -4.3368086899420177e-19
239 79 0.0010016025641025636
239 80 -0.0034989316239316219
239 81 0.0033386752136752118
239 82 -1.0842021724855044e-19
239 83 -0.01303418803418803
239 84 0.013354700854700849
239 85 -0.0010016025641025636
239 86 -0.0034989316239316228
239 87 0.0033386752136752122
239 196 -0.0040064102564102561
239 197 -0.0033119658119658115
239 198 0
239 199 2.7105054312137611e-19
239 200 -0.009401709401709403
239 201 1.0842021724855044e-18
239 202 0.0040064102564102543
239 203 -0.0033119658119658106
239 204 -1.3010426069826053e-18
239 235 1.0842021724855044e-19
239 236 0.024145299145299129
239 237 -4.3368086899420177e-19
239 238 -8.6736173798840355e-19
239 239 0.11196581196581193
240 1 -0.0020032051282051272
240 2 -0.0033386752136752118
240 3 -0.0068376068376068324
240 4 -2.1684043449710089e-19
240 5 -0.013354700854700849
240 6 -0.026388888888888878
240 7 0.0020032051282051276
240 8 -0.0033386752136752127
240 9 -0.006837606837606835
240 40 -0.0080128205128205121
240 41 -1.0842021724855044e-19
240 42 -0.024679487179487165
240 43 -2.1684043449710089e-19
240 44 -1.5178830414797062e-18
240 45 -0.094871794871794854
240 46 0.0080128205128205086
240 47 -3.2526065174565133e-19
240 48 -0.024679487179487175
240 79 -0.0020032051282051276
240 80 0.0033386752136752118
240 81 -0.0068376068376068341
240 82 0
240 83 0.013354700854700852
240 84 -0.026388888888888885
240 85 0.002003205128205128
240 86 0.0033386752136752127
240 87 -0.0068376068376068367
240 196 1.0842021724855044e-19
240 197 1.0842021724855044e-19
240 198 0.010042735042735035
240 199 -1.3010426069826053e-18
240 200 4.3368086899420177e-19
240 201 0.044017094017093993
240 202 5.4210108624275222e-19
240 203 -1.7347234759768071e-18
240 204 0.010042735042735035
240 235 -5.4210108624275222e-19
240 236 -1.3010426069826053e-18
240 237 0.050854700854700827
240 238 -4.3368086899420177e-18
240 239 -5.2041704279304213e-18
240 240 0.21880341880341872
241 4 -0.0027866809116809093
241 5 -0.0010016025641025636
241 6 -0.0020032051282051276
241 7 -0.0077813390313390277
241 8 8.1315162936412833e-20
241 9 0
241 10 -0.0027866809116809097
241 11 0.0010016025641025636
241 12 0.0020032051282051272
241 43 -0.0084757834757834723
241 44 1.0842021724855044e-19
241 45 -0.0080128205128205086
241 46 -0.020441595441595441
241 47 -2.1684043449710089e-19
241 48 2.1684043449710089e-19
241 49 -0.0084757834757834723
241 50 -1.8973538018496328e-19
241 51 0.0080128205128205104
241 82 -0.0027866809116809102
241 83 0.0010016025641025636
241 84 -0.0020032051282051276
241 85 -0.0077813390313390286
241 86 -2.7105054312137611e-20
241 87 5.4210108624275222e-20
241 88 -0.0027866809116809102
241 89 -0.0010016025641025636
241 90 0.0020032051282051276
241 199 -0.00046296296296296363
241 200 -0.0040064102564102552
241 201 7.589415207398531e-19
241 202 0.011609686609686604
241 203 1.6263032587282567e-19
241 204 -8.6736173798840355e-19
241 205 -0.00046296296296296374
241 206 0.0040064102564102552
241 207 -4.87890977618477e-19
241 238 0.0088319088319088242
241 239 5.4210108624275222e-20
241 240 1.951563910473908e-18
241 241 0.089173789173789153
242 4 -0.0010016025641025638
242 5 -0.0034989316239316215
242 6 -0.0033386752136752118
242 7 8.1315162936412833e-20
242 8 -0.013034188034188028
242 9 -0.013354700854700849
242 10 0.0010016025641025636
242 11 -0.003498931623931621
242 12 -0.0033386752136752118
242 43 5.4210108624275222e-20
242 44 -0.0046474358974358931
242 45 -1.0842021724855044e-19
242 46 -2.1684043449710089e-19
242 47 -0.014743589743589745
242 48 -4.3368086899420177e-19
242 49 -1.3552527156068805e-19
242 50 -0.0046474358974358965
242 51 4.3368086899420177e-19
242 82 0.0010016025641025636
242 83 -0.0034989316239316215
242 84 0.0033386752136752118
242 85 -1.8973538018496328e-19
242 86 -0.01303418803418803
242 87 0.013354700854700851
242 88 -0.0010016025641025636
242 89 -0.0034989316239316219
242 90 0.0033386752136752114
242 199 -0.0040064102564102552
242 200 -0.0033119658119658106
242 201 1.7347234759768071e-18
242 202 5.4210108624275222e-20
242 203 -0.009401709401709403
242 204 -6.5052130349130266e-19
242 205 0.0040064102564102552
242 206 -0.0033119658119658106
242 207 0
242 238 2.7105054312137611e-19
242 239 0.024145299145299132
242 240 -8.6736173798840355e-19
242 241 4.3368086899420177e-19
242 242 0.11196581196581194
243 4 -0.0020032051282051272
243 5 -0.0033386752136752118
243 6 -0.0068376068376068307
243 7 5.4210108624275222e-20
243 8 -0.013354700854700852
243 9 -0.026388888888888878
243 10 0.0020032051282051267
243 11 -0.0033386752136752114
243 12 -0.0068376068376068315
243 43 -0.0080128205128205121
243 44 1.0842021724855044e-19
243 45 -0.024679487179487161
243 46 4.3368086899420177e-19
243 47 -6.5052130349130266e-19
243 48 -0.09487179487179484
243 49 0.0080128205128205086
243 50 9.7578195523695399e-19
243 51 -0.024679487179487161
243 82 -0.0020032051282051272
243 83 0.0033386752136752118
243 84 -0.0068376068376068324
243 85 5.4210108624275222e-20
243 86 0.013354700854700851
243 87 -0.026388888888888882
243 88 0.0020032051282051272
243 89 0.0033386752136752122
243 90 -0.0068376068376068333
243 199 7.0473141211557788e-19
243 200 1.4094628242311558e-18
243 201 0.010042735042735038
243 202 -8.6736173798840355e-19
243 203 1.5178830414797062e-18
243 204 0.044017094017093999
243 205 -2.1684043449710089e-19
243 206 2.1684043449710089e-19
243 207 0.010042735042735035
243 238 2.1684043449710089e-18
243 239 -2.1684043449710089e-18
243 240 0.050854700854700834
243 241 -1.7347234759768071e-18
243 242 -4.3368086899420177e-18
243 243 0.21880341880341875
244 7 -0.0027866809116809106
244 8 -0.0010016025641025638
244 9 -0.0020032051282051276
244 10 -0.007781339031339026
244 11 8.1315162936412833e-20
244 12 -2.1684043449710089e-19
244 13 -0.0027866809116809097
244 14 0.0010016025641025636
244 15 0.0020032051282051272
244 46 -0.0084757834757834757
244 47 -1.3552527156068805e-19
244 48 -0.0080128205128205104
244 49 -0.020441595441595434
244 50 -2.1684043449710089e-19
244 51 -2.1684043449710089e-19
244 52 -0.008475783475783474
244 53 -8.1315162936412833e-20
244 54 0.0080128205128205121
244 85 -0.002786680911680911
244 86 0.0010016025641025634
244 87 -0.0020032051282051276
244 88 -0.0077813390313390286
244 89 -2.7105054312137611e-20
244 90 0
244 91 -0.0027866809116809102
244 92 -0.0010016025641025636
244 93 0.0020032051282051276
244 202 -0.00046296296296296401
244 203 -0.0040064102564102552
244 204 0
244 205 0.011609686609686601
244 206 4.3368086899420177e-19
244 207 -4.3368086899420177e-19
244 208 -0.00046296296296296461
244 209 0.0040064102564102552
244 210 -1.0842021724855044e-19
244 241 0.008831908831908826
244 242 -5.9631119486702744e-19
244 243 -5.4210108624275222e-19
244 244 0.089173789173789153
245 7 -0.0010016025641025636
245 8 -0.0034989316239316223
245 9 -0.0033386752136752127
245 10 2.7105054312137611e-20
245 11 -0.013034188034188026
245 12 -0.013354700854700845
245 13 0.0010016025641025636
245 14 -0.0034989316239316215
245 15 -0.0033386752136752109
245 46 -8.1315162936412833e-20
245 47 -0.0046474358974358983
245 48 -1.0842021724855044e-18
245 49 -2.1684043449710089e-19
245 50 -0.014743589743589742
245 51 -1.0842021724855044e-18
245 52 -5.4210108624275222e-20
245 53 -0.0046474358974358965
245 54 -5.4210108624275222e-19
245 85 0.0010016025641025634
245 86 -0.0034989316239316223
245 87 0.0033386752136752114
245 88 -2.7105054312137611e-20
245 89 -0.013034188034188028
245 90 0.013354700854700849
245 91 -0.0010016025641025636
245 92 -0.0034989316239316215
245 93 0.0033386752136752114
245 202 -0.0040064102564102561
245 203 -0.0033119658119658115
245 204 -9.7578195523695399e-19
245 205 4.3368086899420177e-19
245 206 -0.009401709401709403
245 207 2.1684043449710089e-19
245 208 0.0040064102564102543
245 209 -0.0033119658119658106
245 210 -5.4210108624275222e-19
245 241 -3.2526065174565133e-19
245 242 0.024145299145299136
245 243 0
245 244 8.6736173798840355e-19
245 245 0.11196581196581191
246 7 -0.0020032051282051272
246 8 -0.0033386752136752127
246 9 -0.0068376068376068333
246 10 -2.1684043449710089e-19
246 11 -0.013354700854700847
246 12 -0.026388888888888871
246 13 0.0020032051282051272
246 14 -0.0033386752136752109
246 15 -0.0068376068376068315
246 46 -0.0080128205128205121
246 47 -6.5052130349130266e-19
246 48 -0.024679487179487175
246 49 3.2526065174565133e-19
246 50 -2.1684043449710089e-18
246 51 -0.09487179487179484
246 52 0.0080128205128205104
246 53 0
246 54 -0.024679487179487168
246 85 -0.0020032051282051276
246 86 0.0033386752136752122
246 87 -0.0068376068376068359
246 88 5.4210108624275222e-20
246 89 0.013354700854700851
246 90 -0.026388888888888878
246 91 0.0020032051282051276
246 92 0.0033386752136752109
246 93 -0.0068376068376068333
246 202 -1.0842021724855044e-19
246 203 -9.7578195523695399e-19
246 204 0.010042735042735035
246 205 -4.3368086899420177e-19
246 206 -2.1684043449710089e-19
246 207 0.044017094017093986
246 208 -1.6263032587282567e-19
246 209 -1.7347234759768071e-18
246 210 0.010042735042735033
246 241 -1.1926223897340549e-18
246 242 0
246 243 0.050854700854700834
246 244 0
246 245 -2.6020852139652106e-18
246 246 0.21880341880341872
247 10 -0.0027866809116809097
247 11 -0.0010016025641025638
247 12 -0.0020032051282051272
247 13 -0.0077813390313390286
247 14 5.4210108624275222e-20
247 15 -5.4210108624275222e-20
247 16 -0.0027866809116809102
247 17 0.0010016025641025638
247 18 0.0020032051282051272
247 49 -0.0084757834757834723
247 50 8.1315162936412833e-20
247 51 -0.0080128205128205104
247 52 -0.020441595441595444
247 53 0
247 54 5.4210108624275222e-19
247 55 -0.0084757834757834723
247 56 -2.7105054312137611e-19
247 57 0.0080128205128205121
247 88 -0.0027866809116809097
247 89 0.0010016025641025636
247 90 -0.0020032051282051272
247 91 -0.0077813390313390303
247 92 -2.7105054312137611e-20
247 93 1.6263032587282567e-19
247 94 -0.002786680911680911
247 95 -0.0010016025641025638
247 96 0.0020032051282051276
247 205 -0.00046296296296296515
247 206 -0.0040064102564102552
247 207 4.3368086899420177e-19
247 208 0.011609686609686604
247 209 1.0842021724855044e-19
247 210 -4.3368086899420177e-19
247 211 -0.00046296296296296103
247 212 0.0040064102564102561
247 213 -6.5052130349130266e-19
247 244 0.0088319088319088156
247 245 1.6263032587282567e-19
247 246 1.0842021724855044e-18
247 247 0.089173789173789167
248 10 -0.0010016025641025638
248 11 -0.003498931623931621
248 12 -0.0033386752136752105
248 13 1.0842021724855044e-19
248 14 -0.01303418803418803
248 15 -0.013354700854700851
248 16 0.0010016025641025636
248 17 -0.0034989316239316223
248 18 -0.0033386752136752135
248 49 5.4210108624275222e-20
248 50 -0.0046474358974358931
248 51 -1.0842021724855044e-19
248 52 0
248 53 -0.014743589743589747
248 54 -8.6736173798840355e-19
248 55 -1.6263032587282567e-19
248 56 -0.0046474358974358965
248 57 6.5052130349130266e-19
248 88 0.0010016025641025636
248 89 -0.003498931623931621
248 90 0.0033386752136752109
248 91 -5.4210108624275222e-20
248 92 -0.013034188034188031
248 93 0.013354700854700854
248 94 -0.0010016025641025638
248 95 -0.0034989316239316245
248 96 0.003338675213675214
248 205 -0.0040064102564102552
248 206 -0.0033119658119658106
248 207 5.4210108624275222e-19
248 208 -5.4210108624275222e-20
248 209 -0.0094017094017094047
248 210 -2.1684043449710089e-19
248 211 0.0040064102564102543
248 212 -0.0033119658119658106
248 213 2.1684043449710089e-19
248 244 2.7105054312137611e-19
248 245 0.024145299145299122
248 246 4.3368086899420177e-19
248 247 4.3368086899420177e-19
248 248 0.11196581196581196
249 10 -0.0020032051282051276
249 11 -0.0033386752136752105
249 12 -0.0068376068376068298
249 13 -5.4210108624275222e-20
249 14 -0.013354700854700849
249 15 -0.026388888888888882
249 16 0.0020032051282051276
249 17 -0.0033386752136752135
249 18 -0.0068376068376068341
249 49 -0.0080128205128205104
249 50 -4.3368086899420177e-19
249 51 -0.024679487179487154
249 52 -6.5052130349130266e-19
249 53 -1.0842021724855044e-18
249 54 -0.094871794871794868
249 55 0.0080128205128205104
249 56 1.8431436932253575e-18
249 57 -0.024679487179487175
249 88 -0.0020032051282051276
249 89 0.0033386752136752109
249 90 -0.0068376068376068315
249 91 0
249 92 0.013354700854700852
249 93 -0.026388888888888885
249 94 0.0020032051282051276
249 95 0.0033386752136752144
249 96 -0.0068376068376068376
249 205 4.3368086899420177e-19
249 206 3.2526065174565133e-19
249 207 0.010042735042735031
249 208 0
249 209 4.3368086899420177e-19
249 210 0.044017094017093999
249 211 -5.9631119486702744e-19
249 212 -2.1684043449710089e-19
249 213 0.010042735042735042
249 244 7.589415207398531e-19
249 245 0
249 246 0.05085470085470082
249 247 0
249 248 -2.6020852139652106e-18
249 249 0.21880341880341878
250 13 -0.0027866809116809115
250 14 -0.0010016025641025638
250 15 -0.0020032051282051276
250 16 -0.0077813390313390286
250 17 -2.7105054312137611e-20
250 18 -5.4210108624275222e-20
250 19 -0.0027866809116809102
250 20 0.0010016025641025638
250 21 0.0020032051282051272
250 52 -0.0084757834757834775
250 53 -1.3552527156068805e-19
250 54 -0.0080128205128205121
250 55 -0.020441595441595444
250 56 -2.1684043449710089e-19
250 57 5.4210108624275222e-19
250 58 -0.0084757834757834723
250 59 1.8973538018496328e-19
250 60 0.0080128205128205121
250 91 -0.0027866809116809119
250 92 0.0010016025641025636
250 93 -0.002003205128205128
250 94 -0.0077813390313390312
250 95 2.7105054312137611e-20
250 96 2.1684043449710089e-19
250 97 -0.0027866809116809097
250 98 -0.0010016025641025636
250 99 0.0020032051282051276
250 208 -0.00046296296296296211
250 209 -0.0040064102564102561
250 210 -1.6263032587282567e-19
250 211 0.011609686609686603
250 212 -3.2526065174565133e-19
250 213 0
250 214 -0.00046296296296296455
250 215 0.0040064102564102561
250 216 -3.7947076036992655e-19
250 247 0.0088319088319088399
250 248 -8.1315162936412833e-19
250 249 -1.4094628242311558e-18
250 250 0.089173789173789181
251 13 -0.0010016025641025638
251 14 -0.0034989316239316241
251 15 -0.0033386752136752148
251 16 2.7105054312137611e-20
251 17 -0.01303418803418803
251 18 -0.013354700854700852
251 19 0.0010016025641025638
251 20 -0.0034989316239316223
251 21 -0.0033386752136752127
251 52 -5.4210108624275222e-20
251 53 -0.0046474358974359
251 54 -1.3010426069826053e-18
251 55 -2.1684043449710089e-19
251 56 -0.01474358974358975
251 57 -3.4694469519536142e-18
251 58 3.2526065174565133e-19
251 59 -0.0046474358974358965
251 60 -1.1926223897340549e-18
251 91 0.0010016025641025636
251 92 -0.0034989316239316241
251 93 0.003338675213675214
251 94 -5.4210108624275222e-20
251 95 -0.013034188034188033
251 96 0.013354700854700856
251 97 -0.0010016025641025636
251 98 -0.0034989316239316219
251 99 0.0033386752136752109
251 208 -0.0040064102564102561
251 209 -0.0033119658119658132
251 210 -1.7347234759768071e-18
251 211 5.4210108624275222e-20
251 212 -0.0094017094017094065
251 213 2.6020852139652106e-18
251 214 0.0040064102564102561
251 215 -0.0033119658119658128
251 216 -1.6263032587282567e-18
251 247 -7.0473141211557788e-19
251 248 0.02414529914529915
251 249 0
251 250 -1.3010426069826053e-18
251 251 0.11196581196581197
252 13 -0.0020032051282051276
252 14 -0.0033386752136752144
252 15 -0.0068376068376068376
252 16 1.0842021724855044e-19
252 17 -0.013354700854700851
252 18 -0.026388888888888882
252 19 0.0020032051282051272
252 20 -0.0033386752136752127
252 21 -0.0068376068376068324
252 52 -0.0080128205128205121
252 53 -4.3368086899420177e-19
252 54 -0.024679487179487189
252 55 8.6736173798840355e-19
252 56 -2.1684043449710089e-18
252 57 -0.094871794871794868
252 58 0.0080128205128205104
252 59 -1.5178830414797062e-18
252 60 -0.024679487179487168
252 91 -0.002003205128205128
252 92 0.003338675213675214
252 93 -0.0068376068376068402
252 94 2.7105054312137611e-19
252 95 0.013354700854700856
252 96 -0.026388888888888885
252 97 0.0020032051282051276
252 98 0.0033386752136752114
252 99 -0.0068376068376068333
252 208 5.4210108624275222e-20
252 209 -2.3852447794681098e-18
252 210 0.010042735042735042
252 211 4.3368086899420177e-19
252 212 3.4694469519536142e-18
252 213 0.044017094017093999
252 214 -2.1684043449710089e-19
252 215 -1.3010426069826053e-18
252 216 0.010042735042735035
252 247 -1.8431436932253575e-18
252 248 8.6736173798840355e-19
252 249 0.050854700854700854
252 250 1.7347234759768071e-18
252 251 -1.3877787807814457e-17
252 252 0.21880341880341883
253 16 -0.0027866809116809097
253 17 -0.0010016025641025636
253 18 -0.0020032051282051272
253 19 -0.0077813390313390294
253 20 0
253 21 -1.6263032587282567e-19
253 22 -0.002786680911680911
253 23 0.0010016025641025636
253 24 0.0020032051282051272
253 55 -0.0084757834757834723
253 56 4.3368086899420177e-19
253 57 -0.0080128205128205104
253 58 -0.020441595441595444
253 59 0
253 60 -6.5052130349130266e-19
253 61 -0.0084757834757834792
253 62 -3.7947076036992655e-19
253 63 0.0080128205128205121
253 94 -0.0027866809116809106
253 95 0.0010016025641025638
253 96 -0.0020032051282051276
253 97 -0.007781339031339032
253 98 -8.1315162936412833e-20
253 99 -1.0842021724855044e-19
253 100 -0.0027866809116809123
253 101 -0.0010016025641025638
253 102 0.0020032051282051276
253 211 -0.00046296296296296352
253 212 -0.0040064102564102543
253 213 1.0842021724855044e-19
253 214 0.011609686609686604
253 215 -2.1684043449710089e-19
253 216 -1.3010426069826053e-18
253 217 -0.00046296296296296103
253 218 0.0040064102564102543
253 219 8.6736173798840355e-19
253 250 0.008831908831908819
253 251 1.4094628242311558e-18
253 252 -5.4210108624275222e-19
253 253 0.089173789173789167
254 16 -0.0010016025641025636
254 17 -0.0034989316239316206
254 18 -0.0033386752136752114
254 19 2.7105054312137611e-20
254 20 -0.013034188034188031
254 21 -0.013354700854700852
254 22 0.0010016025641025634
254 23 -0.0034989316239316232
254 24 -0.0033386752136752135
254 55 4.0657581468206416e-19
254 56 -0.0046474358974358957
254 57 1.6263032587282567e-18
254 58 0
254 59 -0.014743589743589748
254 60 -2.1684043449710089e-19
254 61 -4.0657581468206416e-19
254 62 -0.0046474358974359017
254 63 1.6263032587282567e-18
254 94 0.0010016025641025638
254 95 -0.0034989316239316228
254 96 0.0033386752136752122
254 97 -1.0842021724855044e-19
254 98 -0.013034188034188033
254 99 0.013354700854700854
254 100 -0.0010016025641025638
254 101 -0.0034989316239316254
254 102 0.0033386752136752148
254 211 -0.0040064102564102552
254 212 -0.0033119658119658089
254 213 -1.0842021724855044e-18
254 214 -1.0842021724855044e-19
254 215 -0.0094017094017094065
254 216 -2.6020852139652106e-18
254 217 0.0040064102564102543
254 218 -0.0033119658119658093
254 219 -1.7347234759768071e-18
254 250 1.6263032587282567e-18
254 251 0.024145299145299132
254 252 2.6020852139652106e-18
254 253 1.3010426069826053e-18
254 254 0.11196581196581196
255 16 -0.0020032051282051272
255 17 -0.0033386752136752114
255 18 -0.0068376068376068324
255 19 -3.2526065174565133e-19
255 20 -0.013354700854700852
255 21 -0.026388888888888882
255 22 0.0020032051282051276
255 23 -0.003338675213675214
255 24 -0.0068376068376068385
255 55 -0.0080128205128205121
255 56 2.4936649967166602e-18
255 57 -0.024679487179487165
255 58 -6.5052130349130266e-19
255 59 -6.5052130349130266e-19
255 60 -0.094871794871794868
255 61 0.0080128205128205104
255 62 1.4094628242311558e-18
255 63 -0.024679487179487192
255 94 -0.0020032051282051276
255 95 0.0033386752136752118
255 96 -0.0068376068376068333
255 97 -1.6263032587282567e-19
255 98 0.013354700854700852
255 99 -0.026388888888888885
255 100 0.002003205128205128
255 101 0.0033386752136752153
255 102 -0.0068376068376068419
255 211 1.0842021724855044e-19
255 212 -2.1684043449710089e-18
255 213 0.010042735042735035
255 214 -1.3010426069826053e-18
255 215 -1.3010426069826053e-18
255 216 0.044017094017094006
255 217 8.6736173798840355e-19
255 218 -2.4936649967166602e-18
255 219 0.010042735042735042
255 250 -3.2526065174565133e-19
255 251 2.6020852139652106e-18
255 252 0.050854700854700827
255 253 -6.0715321659188248e-18
255 254 -2.6020852139652106e-18
255 255 0.2188034188034188
256 19 -0.0027866809116809102
256 20 -0.0010016025641025638
256 21 -0.0020032051282051267
256 22 -0.0077813390313390251
256 23 -8.1315162936412833e-20
256 24 5.4210108624275222e-20
256 25 -0.002786680911680908
256 26 0.0010016025641025638
256 27 0.0020032051282051272
256 58 -0.0084757834757834705
256 59 -2.9815559743351372e-19
256 60 -0.0080128205128205086
256 61 -0.02044159544159543
256 62 -8.6736173798840355e-19
256 63 1.1926223897340549e-18
256 64 -0.0084757834757834653
256 65 8.4025668367626594e-19
256 66 0.0080128205128205104
256 97 -0.0027866809116809102
256 98 0.0010016025641025636
256 99 -0.0020032051282051272
256 100 -0.0077813390313390268
256 101 -1.3552527156068805e-19
256 102 1.6263032587282567e-19
256 103 -0.0027866809116809071
256 104 -0.0010016025641025636
256 105 0.0020032051282051272
256 214 -0.00046296296296296255
256 215 -0.0040064102564102552
256 216 1.0299920638612292e-18
256 217 0.011609686609686601
256 218 -4.87890977618477e-19
256 219 -8.6736173798840355e-19
256 220 -0.00046296296296296976
256 221 0.0040064102564102561
256 222 -1.0299920638612292e-18
256 253 0.0088319088319088381
256 254 -1.7889335846010823e-18
256 255 3.2526065174565133e-18
256 256 0.089173789173789125
257 19 -0.0010016025641025636
257 20 -0.0034989316239316228
257 21 -0.0033386752136752131
257 22 -1.0842021724855044e-19
257 23 -0.013034188034188026
257 24 -0.013354700854700849
257 25 0.001001602564102564
257 26 -0.0034989316239316193
257 27 -0.0033386752136752088
257 58 -4.0657581468206416e-19
257 59 -0.0046474358974358939
257 60 -2.2768245622195593e-18
257 61 -8.6736173798840355e-19
257 62 -0.01474358974358974
257 63 -4.7704895589362195e-18
257 64 8.4025668367626594e-19
257 65 -0.0046474358974358896
257 66 -5.5294310796760726e-18
257 97 0.0010016025641025636
257 98 -0.0034989316239316223
257 99 0.0033386752136752131
257 100 -1.0842021724855044e-19
257 101 -0.013034188034188026
257 102 0.013354700854700849
257 103 -0.0010016025641025636
257 104 -0.0034989316239316163
257 105 0.0033386752136752075
257 214 -0.0040064102564102552
257 215 -0.0033119658119658149
257 216 2.8189256484623115e-18
257 217 -5.4210108624275222e-19
257 218 -0.0094017094017094013
257 219 -8.6736173798840355e-19
257 220 0.0040064102564102561
257 221 -0.0033119658119658158
257 222 3.903127820947816e-18
257 253 -1.7347234759768071e-18
257 254 0.02414529914529915
257 255 -1.7347234759768071e-18
257 256 -2.1684043449710089e-18
257 257 0.1119658119658119
258 19 -0.0020032051282051272
258 20 -0.0033386752136752135
258 21 -0.0068376068376068324
258 22 -1.0842021724855044e-19
258 23 -0.013354700854700847
258 24 -0.026388888888888865
258 25 0.0020032051282051272
258 26 -0.0033386752136752088
258 27 -0.0068376068376068246
258 58 -0.0080128205128205086
258 59 -2.3852447794681098e-18
258 60 -0.024679487179487168
258 61 -1.0842021724855044e-19
258 62 -1.3010426069826053e-18
258 63 -0.094871794871794826
258 64 0.0080128205128205104
258 65 -4.7704895589362195e-18
258 66 -0.024679487179487137
258 97 -0.0020032051282051272
258 98 0.0033386752136752131
258 99 -0.0068376068376068341
258 100 0
258 101 0.013354700854700847
258 102 -0.026388888888888875
258 103 0.0020032051282051272
258 104 0.0033386752136752083
258 105 -0.0068376068376068246
258 214 1.1926223897340549e-18
258 215 2.3852447794681098e-18
258 216 0.010042735042735042
258 217 -4.3368086899420177e-19
258 218 1.951563910473908e-18
258 219 0.044017094017093986
258 220 -9.2157184661267877e-19
258 221 3.7947076036992655e-18
258 222 0.010042735042735021
258 253 3.903127820947816e-18
258 254 -2.6020852139652106e-18
258 255 0.050854700854700854
258 256 -2.6020852139652106e-18
258 257 -5.2041704279304213e-18
258 258 0.21880341880341869
259 22 -0.0027866809116809089
259 23 -0.0010016025641025634
259 24 -0.0020032051282051276
259 25 -0.0077813390313390251
259 26 -5.4210108624275222e-19
259 27 -5.9631119486702744e-19
259 28 -0.0027866809116809136
259 29 0.0010016025641025638
259 30 0.0020032051282051276
259 61 -0.0084757834757834723
259 62 1.0028870095490916e-18
259 63 -0.0080128205128205121
259 64 -0.020441595441595427
259 65 -2.1684043449710089e-18
259 66 -1.4094628242311558e-18
259 67 -0.0084757834757834827
259 68 6.5052130349130266e-19
259 69 0.0080128205128205121
259 100 -0.0027866809116809102
259 101 0.001001602564102564
259 102 -0.0020032051282051276
259 103 -0.0077813390313390268
259 104 -3.7947076036992655e-19
259 105 -3.7947076036992655e-19
259 106 -0.0027866809116809128
259 107 -0.0010016025641025634
259 108 0.002003205128205128
259 217 -0.00046296296296296591
259 218 -0.0040064102564102543
259 219 -8.1315162936412833e-19
259 220 0.011609686609686603
259 221 -2.0599841277224584e-18
259 222 -2.1684043449710089e-18
259 223 -0.00046296296296296417
259 224 0.0040064102564102561
259 225 2.0599841277224584e-18
259 256 0.0088319088319087965
259 257 3.415236843329339e-18
259 258 -3.0357660829594124e-18
259 259 0.089173789173789139
260 22 -0.0010016025641025636
260 23 -0.0034989316239316176
260 24 -0.0033386752136752075
260 25 -4.3368086899420177e-19
260 26 -0.013034188034188024
260 27 -0.013354700854700847
260 28 0.0010016025641025638
260 29 -0.0034989316239316258
260 30 -0.0033386752136752157
260 61 9.4867690092481638e-19
260 62 -0.0046474358974358965
260 63 3.7947076036992655e-18
260 64 -2.1684043449710089e-18
260 65 -0.01474358974358974
260 66 8.6736173798840355e-19
260 67 7.8604657505199071e-19
260 68 -0.0046474358974359069
260 69 -2.4936649967166602e-18
260 100 0.0010016025641025638
260 101 -0.003498931623931621
260 102 0.0033386752136752114
260 103 -4.87890977618477e-19
260 104 -0.013034188034188026
260 105 0.013354700854700845
260 106 -0.0010016025641025634
260 107 -0.0034989316239316245
260 108 0.0033386752136752135
260 217 -0.0040064102564102543
260 218 -0.0033119658119658028
260 219 8.6736173798840355e-19
260 220 -1.951563910473908e-18
260 221 -0.0094017094017093995
260 222 -2.8189256484623115e-18
260 223 0.0040064102564102561
260 224 -0.0033119658119658167
260 225 -9.2157184661267877e-18
260 256 3.7404974950749903e-18
260 257 0.024145299145299105
260 258 -8.6736173798840355e-18
260 259 -6.5052130349130266e-18
260 260 0.1119658119658119
261 22 -0.0020032051282051276
261 23 -0.0033386752136752079
261 24 -0.0068376068376068298
261 25 -4.87890977618477e-19
261 26 -0.013354700854700849
261 27 -0.026388888888888868
261 28 0.002003205128205128
261 29 -0.0033386752136752157
261 30 -0.0068376068376068437
261 61 -0.0080128205128205121
261 62 4.4452289071905682e-18
261 63 -0.024679487179487158
261 64 -1.4094628242311558e-18
261 65 1.951563910473908e-18
261 66 -0.094871794871794812
261 67 0.0080128205128205121
261 68 -2.2768245622195593e-18
261 69 -0.024679487179487206
261 100 -0.0020032051282051276
261 101 0.0033386752136752109
261 102 -0.0068376068376068324
261 103 -3.7947076036992655e-19
261 104 0.013354700854700845
261 105 -0.026388888888888875
261 106 0.002003205128205128
261 107 0.0033386752136752122
261 108 -0.0068376068376068445
261 217 -6.5052130349130266e-19
261 218 -1.0842021724855044e-18
261 219 0.010042735042735026
261 220 -2.1684043449710089e-18
261 221 -6.5052130349130266e-18
261 222 0.044017094017093979
261 223 2.1141942363467336e-18
261 224 -9.9746599868666408e-18
261 225 0.010042735042735038
261 256 -2.7105054312137611e-18
261 257 -5.2041704279304213e-18
261 258 0.050854700854700771
261 259 -6.9388939039072284e-18
261 260 4.3368086899420177e-18
261 261 0.21880341880341869
262 25 -0.0027866809116809076
262 26 -0.0010016025641025636
262 27 -0.0020032051282051267
262 28 -0.0077813390313390329
262 29 1.3552527156068805e-19
262 30 1.0842021724855044e-19
262 31 -0.0027866809116809084
262 32 0.0010016025641025634
262 33 0.0020032051282051267
262 64 -0.0084757834757834636
262 65 9.2157184661267877e-19
262 66 -0.0080128205128205086
262 67 -0.020441595441595455
262 68 0
262 69 -2.1684043449710089e-19
262 70 -0.0084757834757834688
262 71 -9.2157184661267877e-19
262 72 0.0080128205128205086
262 103 -0.0027866809116809089
262 104 0.0010016025641025638
262 105 -0.0020032051282051272
262 106 -0.0077813390313390338
262 107 8.1315162936412833e-20
262 108 -5.4210108624275222e-20
262 109 -0.0027866809116809106
262 110 -0.0010016025641025638
262 111 0.0020032051282051272
262 220 -0.00046296296296296135
262 221 -0.0040064102564102543
262 222 2.4936649967166602e-18
262 223 0.011609686609686604
262 224 3.2526065174565133e-19
262 225 0
262 226 -0.00046296296296295962
262 227 0.0040064102564102552
262 228 -1.951563910473908e-18
262 259 0.0088319088319088329
262 260 2.7647155398380363e-18
262 261 9.6493993351209895e-18
262 262 0.089173789173789181
263 25 -0.0010016025641025636
263 26 -0.0034989316239316189
263 27 -0.0033386752136752118
263 28 -2.7105054312137611e-20
263 29 -0.013034188034188035
263 30 -0.013354700854700852
263 31 0.0010016025641025634
263 32 -0.003498931623931621
263 33 -0.0033386752136752118
263 64 7.8604657505199071e-19
263 65 -0.0046474358974358879
263 66 5.9631119486702744e-18
263 67 0
263 68 -0.014743589743589754
263 69 -5.4210108624275222e-18
263 70 -7.8604657505199071e-19
263 71 -0.0046474358974358913
263 72 3.7947076036992655e-18
263 103 0.0010016025641025638
263 104 -0.0034989316239316215
263 105 0.0033386752136752122
263 106 -2.7105054312137611e-20
263 107 -0.013034188034188036
263 108 0.013354700854700863
263 109 -0.001001602564102564
263 110 -0.0034989316239316241
263 111 0.0033386752136752144
263 220 -0.0040064102564102543
263 221 -0.0033119658119658071
263 222 5.4210108624275222e-19
263 223 0
263 224 -0.0094017094017094099
263 225 1.0625181290357943e-17
263 226 0.0040064102564102543
263 227 -0.0033119658119658076
263 228 5.8546917314217239e-18
263 259 3.1441863002079629e-18
263 260 0.024145299145299143
263 261 7.8062556418956319e-18
263 262 0
263 263 0.11196581196581197
264 25 -0.0020032051282051267
264 26 -0.0033386752136752109
264 27 -0.0068376068376068263
264 28 -1.0842021724855044e-19
264 29 -0.013354700854700854
264 30 -0.026388888888888889
264 31 0.0020032051282051267
264 32 -0.0033386752136752114
264 33 -0.0068376068376068307
264 64 -0.0080128205128205086
264 65 4.4452289071905682e-18
264 66 -0.02467948717948714
264 67 2.1684043449710089e-19
264 68 -5.4210108624275222e-18
264 69 -0.094871794871794896
264 70 0.0080128205128205086
264 71 3.0357660829594124e-18
264 72 -0.024679487179487161
264 103 -0.0020032051282051267
264 104 0.0033386752136752122
264 105 -0.0068376068376068272
264 106 -5.4210108624275222e-20
264 107 0.013354700854700861
264 108 -0.026388888888888896
264 109 0.0020032051282051272
264 110 0.0033386752136752144
264 111 -0.0068376068376068333
264 220 2.4936649967166602e-18
264 221 3.6862873864507151e-18
264 222 0.010042735042735038
264 223 -4.3368086899420177e-19
264 224 1.1926223897340549e-17
264 225 0.044017094017094013
264 226 -1.7889335846010823e-18
264 227 8.3483567281383841e-18
264 228 0.010042735042735045
264 259 9.7578195523695399e-18
264 260 3.4694469519536142e-18
264 261 0.050854700854700848
264 262 -3.4694469519536142e-18
264 263 -2.6020852139652106e-17
264 264 0.21880341880341886
265 28 -0.0027866809116809132
265 29 -0.0010016025641025638
265 30 -0.0020032051282051276
265 31 -0.0077813390313390268
265 32 2.1684043449710089e-19
265 33 3.7947076036992655e-19
265 34 -0.002786680911680908
265 35 0.0010016025641025636
265 36 0.0020032051282051272
265 67 -0.0084757834757834827
265 68 -7.589415207398531e-19
265 69 -0.0080128205128205121
265 70 -0.020441595441595437
265 71 2.1684043449710089e-19
265 72 2.7105054312137611e-18
265 73 -0.0084757834757834688
265 74 0
265 75 0.0080128205128205104
265 106 -0.0027866809116809132
265 107 0.0010016025641025634
265 108 -0.002003205128205128
265 109 -0.0077813390313390286
265 110 1.8973538018496328e-19
265 111 8.1315162936412833e-19
265 112 -0.0027866809116809084
265 113 -0.0010016025641025636
265 114 0.0020032051282051276
265 223 -0.0004629629629629632
265 224 -0.0040064102564102561
265 225 -1.5720931501039814e-18
265 226 0.011609686609686604
265 227 7.589415207398531e-19
265 228 2.1684043449710089e-18
265 229 -0.00046296296296296715
265 230 0.0040064102564102561
265 231 -6.5052130349130266e-19
265 262 0.0088319088319088433
265 263 -3.3068166260807885e-18
265 264 -6.8304736866586779e-18
265 265 0.089173789173789153
266 28 -0.0010016025641025636
266 29 -0.0034989316239316271
266 30 -0.0033386752136752157
266 31 3.5236570605778894e-19
266 32 -0.013034188034188026
266 33 -0.013354700854700852
266 34 0.0010016025641025636
266 35 -0.0034989316239316184
266 36 -0.0033386752136752088
266 67 -8.4025668367626594e-19
266 68 -0.0046474358974359061
266 69 -5.9631119486702744e-18
266 70 6.5052130349130266e-19
266 71 -0.014743589743589743
266 72 3.2526065174565133e-18
266 73 -2.7105054312137611e-20
266 74 -0.0046474358974358913
266 75 2.1684043449710089e-19
266 106 0.0010016025641025634
266 107 -0.0034989316239316241
266 108 0.0033386752136752153
266 109 1.6263032587282567e-19
266 110 -0.01303418803418803
266 111 0.013354700854700845
266 112 -0.0010016025641025636
266 113 -0.0034989316239316189
266 114 0.0033386752136752092
266 223 -0.0040064102564102561
266 224 -0.0033119658119658193
266 225 -7.589415207398531e-19
266 226 7.589415207398531e-19
266 227 -0.0094017094017094013
266 228 -1.0842021724855044e-17
266 229 0.0040064102564102543
266 230 -0.0033119658119658093
266 231 1.0842021724855044e-18
266 262 -3.2526065174565133e-18
266 263 0.024145299145299157
266 264 -8.6736173798840355e-18
266 265 3.4694469519536142e-18
266 266 0.11196581196581193
267 28 -0.0020032051282051276
267 29 -0.0033386752136752161
267 30 -0.0068376068376068437
267 31 4.3368086899420177e-19
267 32 -0.013354700854700851
267 33 -0.026388888888888871
267 34 0.0020032051282051272
267 35 -0.0033386752136752096
267 36 -0.0068376068376068272
267 67 -0.0080128205128205121
267 68 -4.2283884726934673e-18
267 69 -0.02467948717948721
267 70 2.6020852139652106e-18
267 71 6.7220534694101275e-18
267 72 -0.09487179487179484
267 73 0.0080128205128205104
267 74 1.5178830414797062e-18
267 75 -0.024679487179487144
267 106 -0.002003205128205128
267 107 0.003338675213675214
267 108 -0.0068376068376068445
267 109 4.87890977618477e-19
267 110 0.013354700854700849
267 111 -0.026388888888888878
267 112 0.0020032051282051276
267 113 0.0033386752136752088
267 114 -0.0068376068376068289
267 223 -1.6805133673525319e-18
267 224 -2.0599841277224584e-18
267 225 0.010042735042735042
267 226 1.7347234759768071e-18
267 227 -1.1058862159352145e-17
267 228 0.044017094017093986
267 229 -7.589415207398531e-19
267 230 -2.0599841277224584e-18
267 231 0.010042735042735026
267 262 -7.0473141211557788e-18
267 263 -4.7704895589362195e-18
267 264 0.050854700854700868
267 265 8.6736173798840355e-18
267 266 2.0816681711721685e-17
267 267 0.21880341880341872
268 31 -0.0027866809116809093
268 32 -0.0010016025641025638
268 33 -0.0020032051282051276
268 34 -0.0077813390313390268
268 35 1.8973538018496328e-19
268 36 1.1926223897340549e-18
268 37 -0.0027866809116809076
268 38 0.0010016025641025634
268 39 0.0020032051282051263
268 70 -0.0084757834757834723
268 71 -2.7105054312137611e-20
268 72 -0.0080128205128205121
268 73 -0.020441595441595437
268 74 4.3368086899420177e-19
268 75 3.6862873864507151e-18
268 76 -0.0084757834757834653
268 77 -1.0299920638612292e-18
268 78 0.0080128205128205086
268 109 -0.0027866809116809097
268 110 0.0010016025641025636
268 111 -0.0020032051282051276
268 112 -0.0077813390313390286
268 113 2.439454888092385e-19
268 114 9.2157184661267877e-19
268 115 -0.0027866809116809093
268 116 -0.0010016025641025638
268 117 0.0020032051282051267
268 226 -0.00046296296296296732
268 227 -0.0040064102564102561
268 228 -6.5052130349130266e-19
268 229 0.011609686609686603
268 230 8.1315162936412833e-19
268 231 2.6020852139652106e-18
268 232 -0.00046296296296295864
268 233 0.0040064102564102543
268 234 -3.0357660829594124e-18
268 265 0.0088319088319088
268 266 -5.4210108624275222e-20
268 267 -1.8431436932253575e-18
268 268 0.089173789173789167
269 31 -0.0010016025641025636
269 32 -0.0034989316239316193
269 33 -0.0033386752136752105
269 34 1.8973538018496328e-19
269 35 -0.013034188034188028
269 36 -0.013354700854700849
269 37 0.0010016025641025634
269 38 -0.0034989316239316193
269 39 -0.0033386752136752118
269 70 5.4210108624275222e-20
269 71 -0.0046474358974358965
269 72 1.5178830414797062e-18
269 73 8.6736173798840355e-19
269 74 -0.014743589743589745
269 75 2.1684043449710089e-19
269 76 -9.2157184661267877e-19
269 77 -0.0046474358974358879
269 78 5.5294310796760726e-18
269 109 0.0010016025641025636
269 110 -0.0034989316239316202
269 111 0.0033386752136752088
269 112 1.8973538018496328e-19
269 113 -0.01303418803418803
269 114 0.013354700854700856
269 115 -0.0010016025641025638
269 116 -0.0034989316239316236
269 117 0.0033386752136752144
269 226 -0.0040064102564102561
269 227 -0.0033119658119658097
269 228 -3.7947076036992655e-18
269 229 6.5052130349130266e-19
269 230 -0.0094017094017094013
269 231 7.3725747729014302e-18
269 232 0.0040064102564102543
269 233 -0.0033119658119658067
269 234 8.6736173798840355e-18
269 265 -1.6263032587282567e-19
269 266 0.024145299145299105
269 267 3.903127820947816e-18
269 268 4.7704895589362195e-18
269 269 0.11196581196581193
270 31 -0.0020032051282051276
270 32 -0.0033386752136752096
270 33 -0.0068376068376068315
270 34 9.7578195523695399e-19
270 35 -0.013354700854700847
270 36 -0.026388888888888878
270 37 0.0020032051282051263
270 38 -0.0033386752136752122
270 39 -0.0068376068376068272
270 70 -0.0080128205128205121
270 71 2.1684043449710089e-19
270 72 -0.024679487179487158
270 73 4.5536491244391186e-18
270 74 -6.5052130349130266e-19
270 75 -0.094871794871794868
270 76 0.0080128205128205069
270 77 4.4452289071905682e-18
270 78 -0.024679487179487147
270 109 -0.002003205128205128
270 110 0.0033386752136752092
270 111 -0.0068376068376068315
270 112 9.2157184661267877e-19
270 113 0.013354700854700852
270 114 -0.026388888888888885
270 115 0.0020032051282051267
270 116 0.003338675213675214
270 117 -0.0068376068376068315
270 226 -1.6263032587282567e-19
270 227 -2.0599841277224584e-18
270 228 0.010042735042735024
270 229 2.6020852139652106e-18
270 230 1.0842021724855044e-17
270 231 0.044017094017093993
270 232 -2.7647155398380363e-18
270 233 8.6736173798840355e-18
270 234 0.010042735042735045
270 265 -2.3852447794681098e-18
270 266 -8.6736173798840355e-19
270 267 0.050854700854700778
270 268 1.214306433183765e-17
270 269 -2.3418766925686896e-17
270 270 0.21880341880341875
271 34 -0.0027866809116809141
271 35 -0.0010016025641025638
271 36 -0.002003205128205128
271 37 -0.0038906695156695177
271 38 -0.00020032051282051249
271 39 -0.00040064102564102487
271 73 -0.0084757834757834879
271 74 -8.1315162936412833e-19
271 75 -0.0080128205128205121
271 76 -0.010220797720797731
271 77 1.0842021724855044e-18
271 78 -0.0016025641025640997
271 112 -0.0027866809116809145
271 113 0.0010016025641025636
271 114 -0.0020032051282051285
271 115 -0.003890669515669519
271 116 0.00020032051282051295
271 117 -0.00040064102564102465
271 229 -0.00046296296296296222
271 230 -0.0040064102564102561
271 231 -2.2226144535952841e-18
271 232 0.0058048433048433021
271 233 -0.00080128205128205028
271 234 2.6020852139652106e-18
271 268 0.0088319088319088485
271 269 -3.7404974950749903e-18
271 270 -1.0083080204115191e-17
271 271 0.044586894586894597
272 34 -0.0010016025641025636
272 35 -0.003498931623931628
272 36 -0.0033386752136752183
272 37 0.00020032051282051292
272 38 -0.0065170940170940191
272 39 -0.0066773504273504314
272 73 -1.0299920638612292e-18
272 74 -0.0046474358974359104
272 75 -4.5536491244391186e-18
272 76 8.6736173798840355e-19
272 77 -0.0073717948717948786
272 78 -1.7347234759768071e-18
272 112 0.0010016025641025634
272 113 -0.0034989316239316258
272 114 0.0033386752136752153
272 115 -0.00020032051282051252
272 116 -0.0065170940170940217
272 117 0.0066773504273504296
272 229 -0.0040064102564102569
272 230 -0.0033119658119658201
272 231 -5.4210108624275222e-18
272 232 0.00080128205128205212
272 233 -0.0047008547008547067
272 234 4.1199682554449168e-18
272 268 -3.6320772778264399e-18
272 269 0.02414529914529916
272 270 -3.903127820947816e-18
272 271 4.3368086899420177e-18
272 272 0.055982905982906013
273 34 -0.0020032051282051276
273 35 -0.0033386752136752179
273 36 -0.0068376068376068489
273 37 0.00040064102564102595
273 38 -0.0066773504273504314
273 39 -0.013194444444444448
273 73 -0.0080128205128205138
273 74 -4.3368086899420177e-18
273 75 -0.024679487179487231
273 76 0.0016025641025641053
273 77 1.951563910473908e-18
273 78 -0.047435897435897469
273 112 -0.0020032051282051285
273 113 0.0033386752136752148
273 114 -0.0068376068376068506
273 115 0.00040064102564102628
273 116 0.0066773504273504314
273 117 -0.013194444444444451
273 229 -2.8189256484623115e-18
273 230 -5.7462715141731735e-18
273 231 0.010042735042735045
273 232 2.6020852139652106e-18
273 233 4.3368086899420177e-19
273 234 0.022008547008547014
273 268 -1.0950441942103595e-17
273 269 -4.3368086899420177e-18
273 270 0.050854700854700868
273 271 1.0408340855860843e-17
273 272 -2.6020852139652106e-18
273 273 0.10940170940170946
274 40 -0.0038906695156695134
274 41 0.00020032051282051271
274 42 0.00040064102564102546
274 43 -0.0027866809116809102
274 44 0.0010016025641025636
274 45 0.0020032051282051272
274 79 -0.010220797720797722
274 80 -2.1684043449710089e-19
274 81 0.0016025641025641025
274 82 -0.0084757834757834757
274 83 -5.4210108624275222e-20
274 84 0.0080128205128205121
274 118 -0.0038906695156695147
274 119 -0.00020032051282051271
274 120 0.00040064102564102536
274 121 -0.0027866809116809115
274 122 -0.0010016025641025636
274 123 0.002003205128205128
274 235 0.0058048433048433013
274 236 0.00080128205128205104
274 237 -4.3368086899420177e-19
274 238 -0.00046296296296296396
274 239 0.0040064102564102561
274 240 -4.87890977618477e-19
274 274 0.044586894586894577
275 40 -0.00020032051282051273
275 41 -0.0065170940170940139
275 42 -0.0066773504273504236
275 43 0.0010016025641025636
275 44 -0.0034989316239316215
275 45 -0.0033386752136752118
275 79 -4.3368086899420177e-19
275 80 -0.0073717948717948768
275 81 0
275 82 -1.0842021724855044e-19
275 83 -0.0046474358974358983
275 84 -4.3368086899420177e-19
275 118 0.00020032051282051276
275 119 -0.0065170940170940148
275 120 0.0066773504273504244
275 121 -0.0010016025641025636
275 122 -0.0034989316239316228
275 123 0.0033386752136752118
275 235 -0.00080128205128205136
275 236 -0.0047008547008547006
275 237 2.1684043449710089e-19
275 238 0.0040064102564102561
275 239 -0.0033119658119658115
275 240 2.1684043449710089e-19
275 274 0
275 275 0.055982905982905971
276 40 -0.0004006410256410253
276 41 -0.0066773504273504236
276 42 -0.013194444444444436
276 43 0.0020032051282051272
276 44 -0.0033386752136752114
276 45 -0.0068376068376068307
276 79 -0.0016025641025641025
276 80 0
276 81 -0.04743589743589742
276 82 0.0080128205128205121
276 83 -1.0842021724855044e-19
276 84 -0.024679487179487168
276 118 -0.00040064102564102601
276 119 0.0066773504273504244
276 120 -0.013194444444444441
276 121 0.002003205128205128
276 122 0.0033386752136752118
276 123 -0.0068376068376068367
276 235 -4.3368086899420177e-19
276 236 -4.3368086899420177e-19
276 237 0.022008547008546993
276 238 -4.87890977618477e-19
276 239 1.0842021724855044e-19
276 240 0.010042735042735035
276 274 2.6020852139652106e-18
276 275 1.7347234759768071e-18
276 276 0.10940170940170937
277 40 -0.0027866809116809097
277 41 -0.0010016025641025636
277 42 -0.0020032051282051272
277 43 -0.0077813390313390268
277 44 5.4210108624275222e-20
277 45 1.6263032587282567e-19
277 46 -0.0027866809116809106
277 47 0.0010016025641025636
277 48 0.0020032051282051276
277 79 -0.0084757834757834757
277 80 1.0842021724855044e-19
277 81 -0.0080128205128205121
277 82 -0.020441595441595444
277 83 -2.1684043449710089e-19
277 84 -3.2526065174565133e-19
277 85 -0.0084757834757834792
277 86 -2.7105054312137611e-20
277 87 0.0080128205128205121
277 118 -0.002786680911680911
277 119 0.0010016025641025638
277 120 -0.0020032051282051285
277 121 -0.0077813390313390312
277 122 2.7105054312137611e-20
277 123 -1.0842021724855044e-19
277 124 -0.0027866809116809119
277 125 -0.0010016025641025636
277 126 0.002003205128205128
277 235 -0.00046296296296296417
277 236 -0.0040064102564102552
277 237 3.7947076036992655e-19
277 238 0.011609686609686604
277 239 0
277 240 -8.6736173798840355e-19
277 241 -0.00046296296296296363
277 242 0.0040064102564102552
277 243 5.4210108624275222e-20
277 274 0.0088319088319088225
277 275 -4.3368086899420177e-19
277 276 1.0842021724855044e-19
277 277 0.089173789173789167
278 40 -0.0010016025641025636
278 41 -0.0034989316239316215
278 42 -0.0033386752136752118
278 43 8.1315162936412833e-20
278 44 -0.013034188034188028
278 45 -0.013354700854700849
278 46 0.0010016025641025636
278 47 -0.0034989316239316219
278 48 -0.0033386752136752118
278 79 0
278 80 -0.0046474358974358983
278 81 -6.5052130349130266e-19
278 82 0
278 83 -0.014743589743589752
278 84 -2.6020852139652106e-18
278 85 -1.0842021724855044e-19
278 86 -0.0046474358974359009
278 87 -4.3368086899420177e-19
278 118 0.0010016025641025638
278 119 -0.0034989316239316223
278 120 0.0033386752136752118
278 121 8.1315162936412833e-20
278 122 -0.01303418803418803
278 123 0.013354700854700852
278 124 -0.0010016025641025636
278 125 -0.0034989316239316228
278 126 0.0033386752136752122
278 235 -0.0040064102564102561
278 236 -0.0033119658119658115
278 237 7.589415207398531e-19
278 238 -5.4210108624275222e-20
278 239 -0.009401709401709403
278 240 1.7347234759768071e-18
278 241 0.0040064102564102552
278 242 -0.003311965811965811
278 243 -9.7578195523695399e-19
278 274 -1.6263032587282567e-19
278 275 0.024145299145299132
278 276 -1.3010426069826053e-18
278 277 -4.3368086899420177e-19
278 278 0.11196581196581194
279 40 -0.0020032051282051272
279 41 -0.0033386752136752118
279 42 -0.0068376068376068315
279 43 1.0842021724855044e-19
279 44 -0.013354700854700849
279 45 -0.026388888888888871
279 46 0.0020032051282051276
279 47 -0.0033386752136752127
279 48 -0.0068376068376068341
279 79 -0.0080128205128205121
279 80 -4.3368086899420177e-19
279 81 -0.024679487179487168
279 82 4.3368086899420177e-19
279 83 -1.3010426069826053e-18
279 84 -0.094871794871794854
279 85 0.0080128205128205121
279 86 -1.0842021724855044e-19
279 87 -0.024679487179487179
279 118 -0.0020032051282051289
279 119 0.0033386752136752118
279 120 -0.0068376068376068367
279 121 -2.1684043449710089e-19
279 122 0.013354700854700851
279 123 -0.026388888888888889
279 124 0.002003205128205128
279 125 0.0033386752136752127
279 126 -0.0068376068376068402
279 235 3.2526065174565133e-19
279 236 4.3368086899420177e-19
279 237 0.010042735042735035
279 238 -8.6736173798840355e-19
279 239 2.3852447794681098e-18
279 240 0.044017094017093993
279 241 1.6263032587282567e-19
279 242 -1.3010426069826053e-18
279 243 0.010042735042735035
279 274 1.0842021724855044e-19
279 275 -1.3010426069826053e-18
279 276 0.050854700854700841
279 277 -3.4694469519536142e-18
279 278 -8.6736173798840355e-18
279 279 0.2188034188034188
280 43 -0.0027866809116809093
280 44 -0.0010016025641025636
280 45 -0.0020032051282051272
280 46 -0.0077813390313390268
280 47 5.4210108624275222e-20
280 48 2.7105054312137611e-19
280 49 -0.0027866809116809097
280 50 0.0010016025641025636
280 51 0.0020032051282051272
280 82 -0.0084757834757834723
280 83 2.7105054312137611e-20
280 84 -0.0080128205128205121
280 85 -0.020441595441595448
280 86 -2.1684043449710089e-19
280 87 -1.0842021724855044e-19
280 88 -0.0084757834757834757
280 89 -1.3552527156068805e-19
280 90 0.0080128205128205121
280 121 -0.0027866809116809106
280 122 0.0010016025641025636
280 123 -0.002003205128205128
280 124 -0.0077813390313390329
280 125 2.7105054312137611e-20
280 126 -5.4210108624275222e-20
280 127 -0.0027866809116809119
280 128 -0.0010016025641025636
280 129 0.002003205128205128
280 238 -0.00046296296296296374
280 239 -0.0040064102564102552
280 240 9.7578195523695399e-19
280 241 0.011609686609686604
280 242 0
280 243 -8.6736173798840355e-19
280 244 -0.0004629629629629632
280 245 0.0040064102564102552
280 246 -7.0473141211557788e-19
280 277 0.008831908831908826
280 278 -4.3368086899420177e-19
280 279 2.2768245622195593e-18
280 280 0.089173789173789167
281 43 -0.0010016025641025638
281 44 -0.003498931623931621
281 45 -0.0033386752136752118
281 46 8.1315162936412833e-20
281 47 -0.013034188034188028
281 48 -0.013354700854700849
281 49 0.0010016025641025636
281 50 -0.003498931623931621
281 51 -0.0033386752136752118
281 82 8.1315162936412833e-20
281 83 -0.0046474358974358965
281 84 -3.2526065174565133e-19
281 85 -2.1684043449710089e-19
281 86 -0.014743589743589757
281 87 -1.0842021724855044e-18
281 88 -1.3552527156068805e-19
281 89 -0.0046474358974358991
281 90 2.1684043449710089e-19
281 121 0.0010016025641025636
281 122 -0.0034989316239316223
281 123 0.0033386752136752114
281 124 0
281 125 -0.013034188034188033
281 126 0.013354700854700852
281 127 -0.0010016025641025634
281 128 -0.0034989316239316232
281 129 0.0033386752136752127
281 238 -0.0040064102564102552
281 239 -0.0033119658119658106
281 240 1.951563910473908e-18
281 241 -5.4210108624275222e-20
281 242 -0.009401709401709403
281 243 1.3010426069826053e-18
281 244 0.0040064102564102543
281 245 -0.0033119658119658102
281 246 5.4210108624275222e-19
281 277 1.6263032587282567e-19
281 278 0.024145299145299132
281 279 -1.7347234759768071e-18
281 280 4.3368086899420177e-19
281 281 0.11196581196581196
282 43 -0.0020032051282051272
282 44 -0.0033386752136752118
282 45 -0.0068376068376068298
282 46 3.7947076036992655e-19
282 47 -0.013354700854700851
282 48 -0.026388888888888875
282 49 0.0020032051282051267
282 50 -0.0033386752136752118
282 51 -0.0068376068376068315
282 82 -0.0080128205128205121
282 83 -1.0842021724855044e-19
282 84 -0.024679487179487165
282 85 4.3368086899420177e-19
282 86 -1.951563910473908e-18
282 87 -0.094871794871794882
282 88 0.0080128205128205121
282 89 8.6736173798840355e-19
282 90 -0.024679487179487175
282 121 -0.0020032051282051285
282 122 0.0033386752136752118
282 123 -0.0068376068376068367
282 124 -2.1684043449710089e-19
282 125 0.013354700854700852
282 126 -0.026388888888888896
282 127 0.002003205128205128
282 128 0.0033386752136752127
282 129 -0.0068376068376068393
282 238 9.7578195523695399e-19
282 239 1.7347234759768071e-18
282 240 0.010042735042735037
282 241 -4.3368086899420177e-19
282 242 3.0357660829594124e-18
282 243 0.044017094017093999
282 244 -6.5052130349130266e-19
282 245 5.4210108624275222e-19
282 246 0.010042735042735037
282 277 1.951563910473908e-18
282 278 -2.1684043449710089e-18
282 279 0.050854700854700841
282 280 0
282 281 -6.9388939039072284e-18
282 282 0.21880341880341886
283 46 -0.0027866809116809106
283 47 -0.0010016025641025636
283 48 -0.0020032051282051276
283 49 -0.0077813390313390268
283 50 1.0842021724855044e-19
283 51 2.7105054312137611e-19
283 52 -0.0027866809116809097
283 53 0.0010016025641025636
283 54 0.0020032051282051276
283 85 -0.0084757834757834757
283 86 -1.3552527156068805e-19
283 87 -0.0080128205128205121
283 88 -0.020441595441595441
283 89 -2.1684043449710089e-19
283 90 1.0842021724855044e-19
283 91 -0.0084757834757834757
283 92 -8.1315162936412833e-20
283 93 0.0080128205128205121
283 124 -0.0027866809116809119
283 125 0.0010016025641025636
283 126 -0.0020032051282051289
283 127 -0.0077813390313390312
283 128 5.4210108624275222e-20
283 129 -3.2526065174565133e-19
283 130 -0.002786680911680911
283 131 -0.0010016025641025636
283 132 0.002003205128205128
283 241 -0.00046296296296296374
283 242 -0.0040064102564102552
283 243 1.6263032587282567e-19
283 244 0.011609686609686604
283 245 4.87890977618477e-19
283 246 -4.3368086899420177e-19
283 247 -0.00046296296296296493
283 248 0.0040064102564102552
283 249 -1.6263032587282567e-19
283 280 0.008831908831908826
283 281 -7.589415207398531e-19
283 282 -3.2526065174565133e-19
283 283 0.089173789173789167
284 46 -0.0010016025641025636
284 47 -0.0034989316239316223
284 48 -0.0033386752136752127
284 49 1.3552527156068805e-19
284 50 -0.013034188034188026
284 51 -0.013354700854700845
284 52 0.0010016025641025636
284 53 -0.003498931623931621
284 54 -0.0033386752136752114
284 85 -1.8973538018496328e-19
284 86 -0.0046474358974359009
284 87 -9.7578195523695399e-19
284 88 2.1684043449710089e-19
284 89 -0.014743589743589752
284 90 -1.5178830414797062e-18
284 91 -8.1315162936412833e-20
284 92 -0.0046474358974358991
284 93 -5.4210108624275222e-19
284 124 0.0010016025641025634
284 125 -0.0034989316239316228
284 126 0.0033386752136752127
284 127 1.0842021724855044e-19
284 128 -0.01303418803418803
284 129 0.013354700854700849
284 130 -0.0010016025641025638
284 131 -0.0034989316239316223
284 132 0.0033386752136752118
284 241 -0.0040064102564102561
284 242 -0.0033119658119658115
284 243 -5.4210108624275222e-19
284 244 2.1684043449710089e-19
284 245 -0.0094017094017094013
284 246 2.6020852139652106e-18
284 247 0.0040064102564102552
284 248 -0.0033119658119658106
284 249 -2.1684043449710089e-19
284 280 -4.3368086899420177e-19
284 281 0.024145299145299136
284 282 -4.3368086899420177e-19
284 283 4.3368086899420177e-19
284 284 0.11196581196581193
285 46 -0.0020032051282051272
285 47 -0.0033386752136752127
285 48 -0.0068376068376068341
285 49 2.1684043449710089e-19
285 50 -0.013354700854700847
285 51 -0.026388888888888871
285 52 0.0020032051282051272
285 53 -0.0033386752136752114
285 54 -0.0068376068376068307
285 85 -0.0080128205128205121
285 86 -6.5052130349130266e-19
285 87 -0.024679487179487182
285 88 1.0842021724855044e-19
285 89 -3.2526065174565133e-18
285 90 -0.094871794871794868
285 91 0.0080128205128205121
285 92 -1.0842021724855044e-19
285 93 -0.024679487179487168
285 124 -0.0020032051282051289
285 125 0.0033386752136752127
285 126 -0.0068376068376068393
285 127 -2.1684043449710089e-19
285 128 0.013354700854700849
285 129 -0.026388888888888892
285 130 0.0020032051282051285
285 131 0.0033386752136752118
285 132 -0.0068376068376068359
285 241 2.1684043449710089e-19
285 242 -5.4210108624275222e-19
285 243 0.010042735042735037
285 244 -4.3368086899420177e-19
285 245 2.6020852139652106e-18
285 246 0.044017094017093993
285 247 -3.2526065174565133e-19
285 248 -1.3010426069826053e-18
285 249 0.010042735042735031
285 280 -9.7578195523695399e-19
285 281 -1.3010426069826053e-18
285 282 0.050854700854700854
285 283 -1.7347234759768071e-18
285 284 -9.540979117872439e-18
285 285 0.21880341880341875
286 49 -0.0027866809116809093
286 50 -0.0010016025641025636
286 51 -0.0020032051282051272
286 52 -0.0077813390313390286
286 53 0
286 54 1.6263032587282567e-19
286 55 -0.0027866809116809102
286 56 0.0010016025641025636
286 57 0.0020032051282051272
286 88 -0.0084757834757834723
286 89 2.7105054312137611e-20
286 90 -0.0080128205128205121
286 91 -0.020441595441595448
286 92 4.3368086899420177e-19
286 93 -1.0842021724855044e-19
286 94 -0.0084757834757834757
286 95 -2.7105054312137611e-19
286 96 0.0080128205128205121
286 127 -0.002786680911680911
286 128 0.0010016025641025638
286 129 -0.0020032051282051285
286 130 -0.0077813390313390338
286 131 8.1315162936412833e-20
286 132 -5.4210108624275222e-20
286 133 -0.0027866809116809123
286 134 -0.0010016025641025638
286 135 0.0020032051282051285
286 244 -0.00046296296296296493
286 245 -0.0040064102564102552
286 246 8.6736173798840355e-19
286 247 0.011609686609686606
286 248 -5.4210108624275222e-20
286 249 -4.3368086899420177e-19
286 250 -0.00046296296296296146
286 251 0.0040064102564102561
286 252 -9.2157184661267877e-19
286 283 0.0088319088319088173
286 284 -5.4210108624275222e-20
286 285 7.589415207398531e-19
286 286 0.089173789173789195
287 49 -0.0010016025641025636
287 50 -0.0034989316239316206
287 51 -0.0033386752136752105
287 52 8.1315162936412833e-20
287 53 -0.01303418803418803
287 54 -0.013354700854700849
287 55 0.0010016025641025636
287 56 -0.0034989316239316223
287 57 -0.0033386752136752131
287 88 8.1315162936412833e-20
287 89 -0.0046474358974358965
287 90 -3.2526065174565133e-19
287 91 0
287 92 -0.014743589743589755
287 93 -2.6020852139652106e-18
287 94 -3.2526065174565133e-19
287 95 -0.0046474358974358983
287 96 4.3368086899420177e-19
287 127 0.0010016025641025638
287 128 -0.003498931623931621
287 129 0.0033386752136752109
287 130 1.0842021724855044e-19
287 131 -0.013034188034188033
287 132 0.013354700854700856
287 133 -0.0010016025641025638
287 134 -0.0034989316239316249
287 135 0.003338675213675214
287 244 -0.0040064102564102552
287 245 -0.0033119658119658106
287 246 8.6736173798840355e-19
287 247 5.4210108624275222e-20
287 248 -0.009401709401709403
287 249 1.3010426069826053e-18
287 250 0.0040064102564102543
287 251 -0.0033119658119658106
287 252 1.0842021724855044e-19
287 283 -1.0842021724855044e-19
287 284 0.024145299145299122
287 285 -4.3368086899420177e-19
287 286 4.3368086899420177e-19
287 287 0.11196581196581196
288 49 -0.0020032051282051272
288 50 -0.0033386752136752105
288 51 -0.0068376068376068281
288 52 2.1684043449710089e-19
288 53 -0.013354700854700851
288 54 -0.026388888888888878
288 55 0.0020032051282051272
288 56 -0.0033386752136752131
288 57 -0.0068376068376068341
288 88 -0.0080128205128205121
288 89 -6.5052130349130266e-19
288 90 -0.024679487179487161
288 91 2.1684043449710089e-19
288 92 -3.2526065174565133e-18
288 93 -0.094871794871794882
288 94 0.0080128205128205121
288 95 1.1926223897340549e-18
288 96 -0.024679487179487182
288 127 -0.0020032051282051285
288 128 0.0033386752136752109
288 129 -0.0068376068376068333
288 130 -1.0842021724855044e-19
288 131 0.013354700854700854
288 132 -0.026388888888888896
288 133 0.002003205128205128
288 134 0.0033386752136752148
288 135 -0.0068376068376068402
288 244 8.1315162936412833e-19
288 245 8.6736173798840355e-19
288 246 0.010042735042735033
288 247 -8.6736173798840355e-19
288 248 1.951563910473908e-18
288 249 0.044017094017094006
288 250 -8.1315162936412833e-19
288 251 -1.0842021724855044e-19
288 252 0.010042735042735042
288 283 1.3010426069826053e-18
288 284 -1.3010426069826053e-18
288 285 0.05085470085470082
288 286 -1.7347234759768071e-18
288 287 -9.540979117872439e-18
288 288 0.21880341880341883
289 52 -0.002786680911680911
289 53 -0.0010016025641025638
289 54 -0.0020032051282051276
289 55 -0.0077813390313390286
289 56 5.4210108624275222e-20
289 57 3.2526065174565133e-19
289 58 -0.0027866809116809097
289 59 0.0010016025641025638
289 60 0.0020032051282051272
289 91 -0.0084757834757834792
289 92 -1.8973538018496328e-19
289 93 -0.0080128205128205121
289 94 -0.020441595441595448
289 95 -4.3368086899420177e-19
289 96 6.5052130349130266e-19
289 97 -0.008475783475783474
289 98 1.8973538018496328e-19
289 99 0.0080128205128205121
289 130 -0.0027866809116809128
289 131 0.0010016025641025638
289 132 -0.0020032051282051285
289 133 -0.0077813390313390338
289 134 2.7105054312137611e-20
289 135 -5.4210108624275222e-20
289 136 -0.0027866809116809106
289 137 -0.0010016025641025636
289 138 0.0020032051282051276
289 247 -0.00046296296296296222
289 248 -0.0040064102564102561
289 249 1.0842021724855044e-19
289 250 0.011609686609686604
289 251 0
289 252 0
289 253 -0.00046296296296296488
289 254 0.0040064102564102561
289 255 -5.9631119486702744e-19
289 286 0.0088319088319088381
289 287 -7.589415207398531e-19
289 288 -1.0842021724855044e-18
289 289 0.089173789173789167
290 52 -0.0010016025641025638
290 53 -0.0034989316239316232
290 54 -0.0033386752136752144
290 55 1.8973538018496328e-19
290 56 -0.01303418803418803
290 57 -0.013354700854700852
290 58 0.0010016025641025638
290 59 -0.0034989316239316219
290 60 -0.0033386752136752127
290 91 -1.0842021724855044e-19
290 92 -0.0046474358974359017
290 93 -1.8431436932253575e-18
290 94 -2.1684043449710089e-19
290 95 -0.014743589743589752
290 96 -3.6862873864507151e-18
290 97 1.6263032587282567e-19
290 98 -0.0046474358974358974
290 99 -1.3010426069826053e-18
290 130 0.0010016025641025638
290 131 -0.0034989316239316249
290 132 0.0033386752136752144
290 133 5.4210108624275222e-20
290 134 -0.013034188034188036
290 135 0.013354700854700856
290 136 -0.0010016025641025636
290 137 -0.0034989316239316223
290 138 0.0033386752136752109
290 247 -0.0040064102564102561
290 248 -0.0033119658119658132
290 249 -1.5178830414797062e-18
290 250 -1.6263032587282567e-19
290 251 -0.0094017094017094047
290 252 4.1199682554449168e-18
290 253 0.0040064102564102561
290 254 -0.0033119658119658132
290 255 -1.3010426069826053e-18
290 286 -7.0473141211557788e-19
290 287 0.02414529914529915
290 288 0
290 289 -4.3368086899420177e-19
290 290 0.11196581196581197
291 52 -0.0020032051282051276
291 53 -0.003338675213675214
291 54 -0.0068376068376068367
291 55 4.87890977618477e-19
291 56 -0.013354700854700849
291 57 -0.026388888888888878
291 58 0.0020032051282051272
291 59 -0.0033386752136752122
291 60 -0.0068376068376068324
291 91 -0.0080128205128205138
291 92 -8.6736173798840355e-19
291 93 -0.024679487179487192
291 94 6.5052130349130266e-19
291 95 -3.6862873864507151e-18
291 96 -0.094871794871794882
291 97 0.0080128205128205121
291 98 -1.5178830414797062e-18
291 99 -0.024679487179487168
291 130 -0.0020032051282051289
291 131 0.0033386752136752144
291 132 -0.0068376068376068428
291 133 1.0842021724855044e-19
291 134 0.013354700854700856
291 135 -0.026388888888888899
291 136 0.002003205128205128
291 137 0.0033386752136752114
291 138 -0.0068376068376068359
291 247 -5.4210108624275222e-20
291 248 -2.1684043449710089e-18
291 249 0.010042735042735042
291 250 4.3368086899420177e-19
291 251 4.7704895589362195e-18
291 252 0.044017094017093999
291 253 -7.0473141211557788e-19
291 254 -7.589415207398531e-19
291 255 0.010042735042735035
291 286 -8.6736173798840355e-19
291 287 0
291 288 0.050854700854700868
291 289 3.4694469519536142e-18
291 290 -1.8214596497756474e-17
291 291 0.21880341880341883
292 55 -0.0027866809116809093
292 56 -0.0010016025641025636
292 57 -0.0020032051282051272
292 58 -0.0077813390313390294
292 59 2.7105054312137611e-20
292 60 -5.4210108624275222e-20
292 61 -0.002786680911680911
292 62 0.0010016025641025636
292 63 0.0020032051282051272
292 94 -0.0084757834757834757
292 95 3.5236570605778894e-19
292 96 -0.0080128205128205121
292 97 -0.020441595441595451
292 98 -4.3368086899420177e-19
292 99 -6.5052130349130266e-19
292 100 -0.0084757834757834827
292 101 -4.0657581468206416e-19
292 102 0.0080128205128205138
292 133 -0.002786680911680911
292 134 0.0010016025641025638
292 135 -0.002003205128205128
292 136 -0.0077813390313390338
292 137 8.1315162936412833e-20
292 138 -3.7947076036992655e-19
292 139 -0.0027866809116809136
292 140 -0.0010016025641025638
292 141 0.0020032051282051285
292 250 -0.00046296296296296331
292 251 -0.0040064102564102543
292 252 4.3368086899420177e-19
292 253 0.011609686609686606
292 254 -5.4210108624275222e-20
292 255 -1.3010426069826053e-18
292 256 -0.00046296296296296103
292 257 0.0040064102564102543
292 258 4.87890977618477e-19
292 289 0.0088319088319088208
292 290 1.1926223897340549e-18
292 291 -6.5052130349130266e-19
292 292 0.089173789173789181
293 55 -0.0010016025641025636
293 56 -0.0034989316239316206
293 57 -0.0033386752136752114
293 58 5.4210108624275222e-20
293 59 -0.01303418803418803
293 60 -0.013354700854700852
293 61 0.0010016025641025634
293 62 -0.0034989316239316232
293 63 -0.0033386752136752135
293 94 3.7947076036992655e-19
293 95 -0.0046474358974358983
293 96 1.6263032587282567e-18
293 97 -4.3368086899420177e-19
293 98 -0.014743589743589757
293 99 -1.5178830414797062e-18
293 100 -4.6078592330633938e-19
293 101 -0.0046474358974359043
293 102 1.7347234759768071e-18
293 133 0.0010016025641025638
293 134 -0.0034989316239316228
293 135 0.0033386752136752118
293 136 5.4210108624275222e-20
293 137 -0.013034188034188033
293 138 0.013354700854700854
293 139 -0.0010016025641025638
293 140 -0.0034989316239316258
293 141 0.0033386752136752153
293 250 -0.0040064102564102552
293 251 -0.0033119658119658089
293 252 -6.5052130349130266e-19
293 253 1.6263032587282567e-19
293 254 -0.0094017094017094047
293 255 -1.0842021724855044e-18
293 256 0.0040064102564102543
293 257 -0.0033119658119658093
293 258 -1.0842021724855044e-18
293 289 1.0842021724855044e-18
293 290 0.024145299145299132
293 291 1.3010426069826053e-18
293 292 4.3368086899420177e-19
293 293 0.11196581196581196
294 55 -0.0020032051282051272
294 56 -0.0033386752136752114
294 57 -0.0068376068376068307
294 58 1.0842021724855044e-19
294 59 -0.013354700854700852
294 60 -0.026388888888888878
294 61 0.0020032051282051276
294 62 -0.003338675213675214
294 63 -0.0068376068376068385
294 94 -0.0080128205128205121
294 95 2.2768245622195593e-18
294 96 -0.024679487179487168
294 97 -4.3368086899420177e-19
294 98 -2.3852447794681098e-18
294 99 -0.094871794871794882
294 100 0.0080128205128205121
294 101 1.3010426069826053e-18
294 102 -0.024679487179487199
294 133 -0.0020032051282051285
294 134 0.0033386752136752118
294 135 -0.0068376068376068359
294 136 -4.87890977618477e-19
294 137 0.013354700854700856
294 138 -0.026388888888888896
294 139 0.0020032051282051285
294 140 0.0033386752136752148
294 141 -0.0068376068376068445
294 250 3.7947076036992655e-19
294 251 -1.951563910473908e-18
294 252 0.010042735042735035
294 253 -1.7347234759768071e-18
294 254 0
294 255 0.044017094017094006
294 256 5.4210108624275222e-19
294 257 -2.2768245622195593e-18
294 258 0.010042735042735042
294 289 2.1684043449710089e-19
294 290 2.1684043449710089e-18
294 291 0.050854700854700834
294 292 -5.2041704279304213e-18
294 293 -7.8062556418956319e-18
294 294 0.21880341880341883
295 58 -0.0027866809116809097
295 59 -0.0010016025641025638
295 60 -0.0020032051282051272
295 61 -0.0077813390313390242
295 62 -5.4210108624275222e-20
295 63 2.7105054312137611e-19
295 64 -0.0027866809116809076
295 65 0.0010016025641025638
295 66 0.0020032051282051272
295 97 -0.0084757834757834723
295 98 -2.9815559743351372e-19
295 99 -0.0080128205128205121
295 100 -0.020441595441595437
295 101 -1.0842021724855044e-18
295 102 0
295 103 -0.0084757834757834688
295 104 8.1315162936412833e-19
295 105 0.0080128205128205121
295 136 -0.002786680911680911
295 137 0.0010016025641025636
295 138 -0.0020032051282051285
295 139 -0.0077813390313390286
295 140 0
295 141 -2.1684043449710089e-19
295 142 -0.002786680911680908
295 143 -0.0010016025641025634
295 144 0.0020032051282051276
295 253 -0.0004629629629629626
295 254 -0.0040064102564102552
295 255 1.3552527156068805e-18
295 256 0.011609686609686603
295 257 -4.3368086899420177e-19
295 258 -8.6736173798840355e-19
295 259 -0.00046296296296296997
295 260 0.0040064102564102561
295 261 -1.5178830414797062e-18
295 292 0.0088319088319088381
295 293 -1.951563910473908e-18
295 294 4.4452289071905682e-18
295 295 0.089173789173789153
296 58 -0.0010016025641025638
296 59 -0.0034989316239316223
296 60 -0.0033386752136752131
296 61 0
296 62 -0.013034188034188023
296 63 -0.013354700854700849
296 64 0.001001602564102564
296 65 -0.0034989316239316189
296 66 -0.0033386752136752088
296 97 -4.3368086899420177e-19
296 98 -0.0046474358974358957
296 99 -2.6020852139652106e-18
296 100 -1.0842021724855044e-18
296 101 -0.014743589743589745
296 102 -4.5536491244391186e-18
296 103 8.4025668367626594e-19
296 104 -0.0046474358974358913
296 105 -5.8546917314217239e-18
296 136 0.0010016025641025634
296 137 -0.0034989316239316223
296 138 0.0033386752136752131
296 139 -8.1315162936412833e-20
296 140 -0.013034188034188026
296 141 0.013354700854700845
296 142 -0.0010016025641025634
296 143 -0.0034989316239316167
296 144 0.003338675213675207
296 253 -0.0040064102564102561
296 254 -0.0033119658119658145
296 255 3.4694469519536142e-18
296 256 -2.7105054312137611e-19
296 257 -0.0094017094017093978
296 258 1.0842021724855044e-18
296 259 0.0040064102564102561
296 260 -0.0033119658119658154
296 261 4.4452289071905682e-18
296 292 -1.8973538018496328e-18
296 293 0.02414529914529915
296 294 -2.6020852139652106e-18
296 295 -2.1684043449710089e-18
296 296 0.11196581196581193
297 58 -0.0020032051282051272
297 59 -0.0033386752136752135
297 60 -0.0068376068376068324
297 61 3.2526065174565133e-19
297 62 -0.013354700854700845
297 63 -0.026388888888888865
297 64 0.0020032051282051272
297 65 -0.0033386752136752083
297 66 -0.0068376068376068237
297 97 -0.0080128205128205104
297 98 -2.6020852139652106e-18
297 99 -0.024679487179487175
297 100 -3.2526065174565133e-19
297 101 -1.5178830414797062e-18
297 102 -0.09487179487179484
297 103 0.0080128205128205086
297 104 -4.87890977618477e-18
297 105 -0.02467948717948714
297 136 -0.0020032051282051285
297 137 0.0033386752136752131
297 138 -0.0068376068376068376
297 139 -1.0842021724855044e-19
297 140 0.013354700854700845
297 141 -0.026388888888888885
297 142 0.0020032051282051276
297 143 0.0033386752136752079
297 144 -0.0068376068376068281
297 253 1.4094628242311558e-18
297 254 2.7105054312137611e-18
297 255 0.010042735042735042
297 256 -4.3368086899420177e-19
297 257 3.2526065174565133e-18
297 258 0.044017094017093986
297 259 -1.3010426069826053e-18
297 260 4.0115480381963664e-18
297 261 0.010042735042735021
297 292 4.5536491244391186e-18
297 293 -2.6020852139652106e-18
297 294 0.050854700854700868
297 295 -2.6020852139652106e-18
297 296 -4.3368086899420177e-18
297 297 0.21880341880341869
298 61 -0.0027866809116809084
298 62 -0.0010016025641025634
298 63 -0.0020032051282051272
298 64 -0.0077813390313390234
298 65 -4.0657581468206416e-19
298 66 -5.4210108624275222e-20
298 67 -0.0027866809116809132
298 68 0.0010016025641025638
298 69 0.0020032051282051276
298 100 -0.0084757834757834723
298 101 9.2157184661267877e-19
298 102 -0.0080128205128205121
298 103 -0.020441595441595434
298 104 -1.951563910473908e-18
298 105 -1.6263032587282567e-18
298 106 -0.0084757834757834861
298 107 7.3183646642771549e-19
298 108 0.0080128205128205156
298 139 -0.0027866809116809102
298 140 0.001001602564102564
298 141 -0.0020032051282051289
298 142 -0.0077813390313390294
298 143 -3.7947076036992655e-19
298 144 -5.4210108624275222e-19
298 145 -0.0027866809116809141
298 146 -0.0010016025641025636
298 147 0.0020032051282051285
298 256 -0.00046296296296296612
298 257 -0.0040064102564102543
298 258 -3.2526065174565133e-19
298 259 0.011609686609686603
298 260 -1.5720931501039814e-18
298 261 -2.1684043449710089e-18
298 262 -0.00046296296296296428
298 263 0.0040064102564102561
298 264 1.951563910473908e-18
298 295 0.0088319088319087965
298 296 3.4694469519536142e-18
298 297 -2.8189256484623115e-18
298 298 0.089173789173789153
299 61 -0.0010016025641025636
299 62 -0.0034989316239316171
299 63 -0.003338675213675207
299 64 -4.0657581468206416e-19
299 65 -0.013034188034188023
299 66 -0.013354700854700845
299 67 0.0010016025641025638
299 68 -0.0034989316239316254
299 69 -0.0033386752136752153
299 100 1.0028870095490916e-18
299 101 -0.0046474358974358983
299 102 3.3610267347050637e-18
299 103 -1.951563910473908e-18
299 104 -0.014743589743589745
299 105 -1.3010426069826053e-18
299 106 8.4025668367626594e-19
299 107 -0.0046474358974359087
299 108 -2.8189256484623115e-18
299 139 0.0010016025641025638
299 140 -0.0034989316239316219
299 141 0.0033386752136752101
299 142 -3.7947076036992655e-19
299 143 -0.013034188034188026
299 144 0.013354700854700845
299 145 -0.0010016025641025634
299 146 -0.0034989316239316245
299 147 0.0033386752136752144
299 256 -0.0040064102564102543
299 257 -0.0033119658119658028
299 258 1.4094628242311558e-18
299 259 -1.5720931501039814e-18
299 260 -0.0094017094017093995
299 261 -1.7347234759768071e-18
299 262 0.0040064102564102561
299 263 -0.0033119658119658167
299 264 -9.1072982488782372e-18
299 295 3.6862873864507151e-18
299 296 0.024145299145299101
299 297 -8.6736173798840355e-18
299 298 -7.3725747729014302e-18
299 299 0.1119658119658119
300 61 -0.0020032051282051272
300 62 -0.0033386752136752079
300 63 -0.0068376068376068281
300 64 -1.0842021724855044e-19
300 65 -0.013354700854700847
300 66 -0.026388888888888861
300 67 0.002003205128205128
300 68 -0.0033386752136752157
300 69 -0.0068376068376068419
300 100 -0.0080128205128205121
300 101 4.4452289071905682e-18
300 102 -0.024679487179487161
300 103 -1.3010426069826053e-18
300 104 -4.3368086899420177e-19
300 105 -0.094871794871794826
300 106 0.0080128205128205156
300 107 -2.6020852139652106e-18
300 108 -0.024679487179487217
300 139 -0.0020032051282051285
300 140 0.0033386752136752105
300 141 -0.0068376068376068341
300 142 -7.589415207398531e-19
300 143 0.013354700854700845
300 144 -0.026388888888888885
300 145 0.0020032051282051289
300 146 0.0033386752136752131
300 147 -0.0068376068376068489
300 256 -3.7947076036992655e-19
300 257 -5.4210108624275222e-19
300 258 0.010042735042735024
300 259 -3.0357660829594124e-18
300 260 -5.2041704279304213e-18
300 261 0.044017094017093979
300 262 1.8973538018496328e-18
300 263 -9.7578195523695399e-18
300 264 0.010042735042735037
300 295 -3.0357660829594124e-18
300 296 -6.0715321659188248e-18
300 297 0.050854700854700778
300 298 -6.9388939039072284e-18
300 299 7.8062556418956319e-18
300 300 0.21880341880341869
301 64 -0.0027866809116809071
301 65 -0.0010016025641025634
301 66 -0.0020032051282051267
301 67 -0.007781339031339032
301 68 5.4210108624275222e-20
301 69 1.6263032587282567e-19
301 70 -0.0027866809116809089
301 71 0.0010016025641025634
301 72 0.0020032051282051267
301 103 -0.0084757834757834688
301 104 7.8604657505199071e-19
301 105 -0.0080128205128205121
301 106 -0.020441595441595461
301 107 -2.1684043449710089e-19
301 108 -5.4210108624275222e-19
301 109 -0.0084757834757834723
301 110 -9.4867690092481638e-19
301 111 0.0080128205128205121
301 142 -0.0027866809116809102
301 143 0.0010016025641025638
301 144 -0.0020032051282051285
301 145 -0.007781339031339039
301 146 5.4210108624275222e-20
301 147 -1.0842021724855044e-19
301 148 -0.0027866809116809115
301 149 -0.0010016025641025638
301 150 0.002003205128205128
301 259 -0.00046296296296296114
301 260 -0.0040064102564102543
301 261 2.8189256484623115e-18
301 262 0.011609686609686606
301 263 1.6263032587282567e-19
301 264 -8.6736173798840355e-19
301 265 -0.00046296296296295951
301 266 0.0040064102564102552
301 267 -2.4936649967166602e-18
301 298 0.0088319088319088346
301 299 2.7647155398380363e-18
301 300 9.3241386833753381e-18
301 301 0.089173789173789195
302 64 -0.0010016025641025634
302 65 -0.0034989316239316189
302 66 -0.0033386752136752114
302 67 5.4210108624275222e-20
302 68 -0.013034188034188033
302 69 -0.013354700854700852
302 70 0.0010016025641025636
302 71 -0.0034989316239316206
302 72 -0.0033386752136752118
302 103 8.1315162936412833e-19
302 104 -0.0046474358974358905
302 105 5.8546917314217239e-18
302 106 -2.1684043449710089e-19
302 107 -0.014743589743589762
302 108 -6.9388939039072284e-18
302 109 -9.7578195523695399e-19
302 110 -0.0046474358974358948
302 111 3.7947076036992655e-18
302 142 0.0010016025641025638
302 143 -0.0034989316239316228
302 144 0.0033386752136752127
302 145 5.4210108624275222e-20
302 146 -0.013034188034188038
302 147 0.013354700854700863
302 148 -0.001001602564102564
302 149 -0.0034989316239316241
302 150 0.0033386752136752148
302 259 -0.0040064102564102543
302 260 -0.0033119658119658063
302 261 9.7578195523695399e-19
302 262 0
302 263 -0.0094017094017094099
302 264 1.0842021724855044e-17
302 265 0.0040064102564102543
302 266 -0.0033119658119658071
302 267 6.0715321659188248e-18
302 298 3.0357660829594124e-18
302 299 0.024145299145299143
302 300 7.8062556418956319e-18
302 301 -4.3368086899420177e-19
302 302 0.111965811965812
303 64 -0.0020032051282051267
303 65 -0.0033386752136752109
303 66 -0.0068376068376068263
303 67 3.2526065174565133e-19
303 68 -0.013354700854700854
303 69 -0.026388888888888889
303 70 0.0020032051282051267
303 71 -0.0033386752136752114
303 72 -0.0068376068376068307
303 103 -0.0080128205128205104
303 104 4.1199682554449168e-18
303 105 -0.024679487179487147
303 106 5.4210108624275222e-19
303 107 -7.8062556418956319e-18
303 108 -0.094871794871794923
303 109 0.0080128205128205104
303 110 2.7105054312137611e-18
303 111 -0.024679487179487168
303 142 -0.002003205128205128
303 143 0.0033386752136752122
303 144 -0.0068376068376068315
303 145 -2.7105054312137611e-19
303 146 0.013354700854700859
303 147 -0.026388888888888913
303 148 0.002003205128205128
303 149 0.0033386752136752148
303 150 -0.0068376068376068367
303 259 2.927345865710862e-18
303 260 3.903127820947816e-18
303 261 0.010042735042735042
303 262 -8.6736173798840355e-19
303 263 1.3227266504323154e-17
303 264 0.044017094017094013
303 265 -2.1684043449710089e-18
303 266 8.9988780316296868e-18
303 267 0.010042735042735045
303 298 9.4325589006238886e-18
303 299 3.903127820947816e-18
303 300 0.050854700854700854
303 301 -3.4694469519536142e-18
303 302 -3.0357660829594124e-17
303 303 0.21880341880341891
304 67 -0.0027866809116809132
304 68 -0.001001602564102564
304 69 -0.0020032051282051276
304 70 -0.0077813390313390268
304 71 2.439454888092385e-19
304 72 1.0299920638612292e-18
304 73 -0.002786680911680908
304 74 0.0010016025641025636
304 75 0.0020032051282051272
304 106 -0.0084757834757834844
304 107 -8.4025668367626594e-19
304 108 -0.0080128205128205138
304 109 -0.020441595441595444
304 110 6.5052130349130266e-19
304 111 2.4936649967166602e-18
304 112 -0.0084757834757834688
304 113 0
304 114 0.0080128205128205121
304 145 -0.0027866809116809136
304 146 0.0010016025641025634
304 147 -0.0020032051282051289
304 148 -0.0077813390313390303
304 149 2.439454888092385e-19
304 150 3.2526065174565133e-19
304 151 -0.0027866809116809093
304 152 -0.0010016025641025636
304 153 0.002003205128205128
304 262 -0.00046296296296296298
304 263 -0.0040064102564102561
304 264 -1.3010426069826053e-18
304 265 0.011609686609686604
304 266 8.6736173798840355e-19
304 267 1.7347234759768071e-18
304 268 -0.00046296296296296732
304 269 0.0040064102564102561
304 270 -8.6736173798840355e-19
304 301 0.0088319088319088433
304 302 -3.415236843329339e-18
304 303 -6.9388939039072284e-18
304 304 0.089173789173789153
305 67 -0.0010016025641025638
305 68 -0.0034989316239316267
305 69 -0.0033386752136752157
305 70 3.2526065174565133e-19
305 71 -0.013034188034188026
305 72 -0.013354700854700852
305 73 0.0010016025641025636
305 74 -0.0034989316239316184
305 75 -0.0033386752136752088
305 106 -9.2157184661267877e-19
305 107 -0.0046474358974359078
305 108 -6.0715321659188248e-18
305 109 6.5052130349130266e-19
305 110 -0.014743589743589754
305 111 5.6378512969246231e-18
305 112 -1.0842021724855044e-19
305 113 -0.0046474358974358931
305 114 3.2526065174565133e-19
305 145 0.0010016025641025634
305 146 -0.0034989316239316254
305 147 0.0033386752136752153
305 148 2.7105054312137611e-19
305 149 -0.013034188034188031
305 150 0.013354700854700845
305 151 -0.0010016025641025636
305 152 -0.0034989316239316197
305 153 0.0033386752136752088
305 262 -0.0040064102564102561
305 263 -0.0033119658119658193
305 264 -3.2526065174565133e-19
305 265 8.1315162936412833e-19
305 266 -0.0094017094017094013
305 267 -8.6736173798840355e-18
305 268 0.0040064102564102552
305 269 -0.0033119658119658089
305 270 1.1926223897340549e-18
305 301 -3.5236570605778894e-18
305 302 0.024145299145299157
305 303 -1.0408340855860843e-17
305 304 3.0357660829594124e-18
305 305 0.11196581196581193
306 67 -0.002003205128205128
306 68 -0.0033386752136752161
306 69 -0.0068376068376068437
306 70 9.7578195523695399e-19
306 71 -0.013354700854700851
306 72 -0.026388888888888871
306 73 0.0020032051282051272
306 74 -0.0033386752136752096
306 75 -0.0068376068376068255
306 106 -0.0080128205128205138
306 107 -4.4452289071905682e-18
306 108 -0.024679487179487217
306 109 2.927345865710862e-18
306 110 6.5052130349130266e-18
306 111 -0.094871794871794868
306 112 0.0080128205128205121
306 113 1.7347234759768071e-18
306 114 -0.024679487179487147
306 145 -0.0020032051282051289
306 146 0.0033386752136752148
306 147 -0.006837606837606848
306 148 4.87890977618477e-19
306 149 0.013354700854700847
306 150 -0.026388888888888892
306 151 0.002003205128205128
306 152 0.0033386752136752083
306 153 -0.0068376068376068307
306 262 -1.463672932855431e-18
306 263 -1.951563910473908e-18
306 264 0.010042735042735042
306 265 8.6736173798840355e-19
306 266 -9.540979117872439e-18
306 267 0.044017094017093993
306 268 -9.2157184661267877e-19
306 269 -1.8431436932253575e-18
306 270 0.010042735042735028
306 301 -6.613633252161577e-18
306 302 -5.6378512969246231e-18
306 303 0.050854700854700882
306 304 6.9388939039072284e-18
306 305 1.6479873021779667e-17
306 306 0.21880341880341875
307 70 -0.0027866809116809093
307 71 -0.0010016025641025636
307 72 -0.0020032051282051276
307 73 -0.0077813390313390268
307 74 2.7105054312137611e-19
307 75 1.4094628242311558e-18
307 76 -0.002786680911680908
307 77 0.0010016025641025634
307 78 0.0020032051282051267
307 109 -0.0084757834757834723
307 110 0
307 111 -0.0080128205128205121
307 112 -0.020441595441595444
307 113 2.1684043449710089e-19
307 114 3.1441863002079629e-18
307 115 -0.0084757834757834688
307 116 -1.0570971181733668e-18
307 117 0.0080128205128205104
307 148 -0.0027866809116809102
307 149 0.0010016025641025638
307 150 -0.0020032051282051285
307 151 -0.007781339031339032
307 152 2.9815559743351372e-19
307 153 8.1315162936412833e-19
307 154 -0.002786680911680911
307 155 -0.0010016025641025638
307 156 0.0020032051282051276
307 265 -0.00046296296296296732
307 266 -0.0040064102564102543
307 267 -3.2526065174565133e-19
307 268 0.011609686609686604
307 269 9.7578195523695399e-19
307 270 2.6020852139652106e-18
307 271 -0.00046296296296295843
307 272 0.0040064102564102543
307 273 -3.2526065174565133e-18
307 304 0.0088319088319088
307 305 -5.4210108624275222e-20
307 306 -1.7347234759768071e-18
307 307 0.089173789173789167
308 70 -0.0010016025641025636
308 71 -0.0034989316239316189
308 72 -0.0033386752136752101
308 73 3.2526065174565133e-19
308 74 -0.013034188034188028
308 75 -0.013354700854700849
308 76 0.0010016025641025636
308 77 -0.0034989316239316197
308 78 -0.0033386752136752118
308 109 -1.3552527156068805e-19
308 110 -0.0046474358974358974
308 111 1.0842021724855044e-18
308 112 8.6736173798840355e-19
308 113 -0.014743589743589755
308 114 -1.0842021724855044e-18
308 115 -9.7578195523695399e-19
308 116 -0.0046474358974358913
308 117 5.0957502106818708e-18
308 148 0.0010016025641025636
308 149 -0.0034989316239316206
308 150 0.0033386752136752088
308 151 2.9815559743351372e-19
308 152 -0.013034188034188031
308 153 0.013354700854700852
308 154 -0.0010016025641025638
308 155 -0.0034989316239316241
308 156 0.0033386752136752144
308 265 -0.0040064102564102552
308 266 -0.0033119658119658093
308 267 -3.3610267347050637e-18
308 268 7.0473141211557788e-19
308 269 -0.0094017094017094013
308 270 9.1072982488782372e-18
308 271 0.0040064102564102543
308 272 -0.0033119658119658063
308 273 8.9988780316296868e-18
308 304 -1.0842021724855044e-19
308 305 0.024145299145299105
308 306 3.903127820947816e-18
308 307 3.0357660829594124e-18
308 308 0.11196581196581193
309 70 -0.0020032051282051276
309 71 -0.0033386752136752092
309 72 -0.0068376068376068289
309 73 1.3552527156068805e-18
309 74 -0.013354700854700847
309 75 -0.026388888888888875
309 76 0.0020032051282051263
309 77 -0.0033386752136752122
309 78 -0.0068376068376068281
309 109 -0.0080128205128205138
309 110 2.1684043449710089e-19
309 111 -0.024679487179487161
309 112 3.7947076036992655e-18
309 113 -2.1684043449710089e-18
309 114 -0.094871794871794882
309 115 0.0080128205128205086
309 116 4.3368086899420177e-18
309 117 -0.024679487179487154
309 148 -0.0020032051282051289
309 149 0.0033386752136752092
309 150 -0.0068376068376068333
309 151 6.5052130349130266e-19
309 152 0.013354700854700852
309 153 -0.026388888888888892
309 154 0.0020032051282051276
309 155 0.003338675213675214
309 156 -0.0068376068376068341
309 265 0
309 266 -1.8431436932253575e-18
309 267 0.010042735042735028
309 268 3.0357660829594124e-18
309 269 1.2359904766334751e-17
309 270 0.044017094017093999
309 271 -3.1441863002079629e-18
309 272 9.1072982488782372e-18
309 273 0.010042735042735049
309 304 -1.6263032587282567e-18
309 305 -8.6736173798840355e-19
309 306 0.050854700854700785
309 307 1.3010426069826053e-17
309 308 -2.5153490401663703e-17
309 309 0.21880341880341878
310 73 -0.0027866809116809145
310 74 -0.0010016025641025638
310 75 -0.002003205128205128
310 76 -0.0038906695156695177
310 77 -0.00020032051282051246
310 78 -0.00040064102564102443
310 112 -0.0084757834757834896
310 113 -1.0570971181733668e-18
310 114 -0.0080128205128205156
310 115 -0.010220797720797736
310 116 1.0842021724855044e-18
310 117 -0.0016025641025640993
310 151 -0.0027866809116809149
310 152 0.0010016025641025634
310 153 -0.0020032051282051293
310 154 -0.0038906695156695212
310 155 0.00020032051282051303
310 156 -0.00040064102564102487
310 268 -0.00046296296296296217
310 269 -0.0040064102564102561
310 270 -2.1141942363467336e-18
310 271 0.0058048433048433039
310 272 -0.00080128205128205017
310 273 2.1684043449710089e-18
310 307 0.0088319088319088468
310 308 -3.9573379295720912e-18
310 309 -1.0516761073109393e-17
310 310 0.044586894586894604
311 73 -0.0010016025641025638
311 74 -0.0034989316239316284
311 75 -0.0033386752136752179
311 76 0.00020032051282051298
311 77 -0.0065170940170940191
311 78 -0.0066773504273504323
311 112 -1.0570971181733668e-18
311 113 -0.0046474358974359139
311 114 -4.6620693416876691e-18
311 115 1.0842021724855044e-18
311 116 -0.0073717948717948838
311 117 -1.7347234759768071e-18
311 151 0.0010016025641025634
311 152 -0.0034989316239316262
311 153 0.0033386752136752157
311 154 -0.00020032051282051241
311 155 -0.0065170940170940226
311 156 0.0066773504273504296
311 268 -0.0040064102564102569
311 269 -0.0033119658119658193
311 270 -4.6620693416876691e-18
311 271 0.0008012820512820519
311 272 -0.004700854700854705
311 273 4.3368086899420177e-18
311 307 -3.8489177123235407e-18
311 308 0.02414529914529916
311 309 -3.0357660829594124e-18
311 310 4.3368086899420177e-18
311 311 0.05598290598290602
312 73 -0.002003205128205128
312 74 -0.0033386752136752179
312 75 -0.0068376068376068489
312 76 0.00040064102564102639
312 77 -0.0066773504273504323
312 78 -0.01319444444444445
312 112 -0.0080128205128205156
312 113 -4.6620693416876691e-18
312 114 -0.024679487179487238
312 115 0.0016025641025641064
312 116 1.7347234759768071e-18
312 117 -0.047435897435897476
312 151 -0.0020032051282051293
312 152 0.0033386752136752153
312 153 -0.0068376068376068532
312 154 0.00040064102564102655
312 155 0.0066773504273504305
312 156 -0.013194444444444462
312 268 -2.1684043449710089e-18
312 269 -5.3125906451789717e-18
312 270 0.010042735042735045
312 271 2.1684043449710089e-18
312 272 1.5178830414797062e-18
312 273 0.022008547008547021
312 307 -1.0842021724855044e-17
312 308 -4.3368086899420177e-18
312 309 0.050854700854700889
312 310 1.0408340855860843e-17
312 311 -3.4694469519536142e-18
312 312 0.1094017094017095
313 79 -0.0038906695156695147
313 80 0.00020032051282051279
313 81 0.00040064102564102579
313 82 -0.0027866809116809102
313 83 0.0010016025641025636
313 84 0.002003205128205128
313 118 -0.01022079772079772
313 119 -4.3368086899420177e-19
313 120 0.0016025641025641019
313 121 -0.008475783475783474
313 122 -1.3552527156068805e-19
313 123 0.0080128205128205121
313 157 -0.003890669515669513
313 158 -0.00020032051282051279
313 159 0.00040064102564102519
313 160 -0.0027866809116809097
313 161 -0.0010016025641025636
313 162 0.0020032051282051267
313 274 0.0058048433048433074
313 275 0.00080128205128205147
313 276 0
313 277 -0.00046296296296296309
313 278 0.0040064102564102561
313 279 -1.0842021724855044e-18
313 313 0.044586894586894577
314 79 -0.00020032051282051265
314 80 -0.0065170940170940148
314 81 -0.0066773504273504244
314 82 0.0010016025641025634
314 83 -0.003498931623931621
314 84 -0.0033386752136752114
314 118 -2.1684043449710089e-19
314 119 -0.0073717948717948725
314 120 2.1684043449710089e-19
314 121 -2.7105054312137611e-20
314 122 -0.0046474358974358965
314 123 0
314 157 0.00020032051282051265
314 158 -0.0065170940170940148
314 159 0.0066773504273504244
314 160 -0.0010016025641025638
314 161 -0.0034989316239316219
314 162 0.0033386752136752122
314 274 -0.00080128205128205093
314 275 -0.0047008547008546946
314 276 -6.5052130349130266e-19
314 277 0.0040064102564102561
314 278 -0.003311965811965808
314 279 9.7578195523695399e-19
314 313 -4.3368086899420177e-19
314 314 0.055982905982905964
315 79 -0.00040064102564102541
315 80 -0.0066773504273504236
315 81 -0.013194444444444439
315 82 0.002003205128205128
315 83 -0.0033386752136752118
315 84 -0.0068376068376068333
315 118 -0.0016025641025641029
315 119 -4.3368086899420177e-19
315 120 -0.04743589743589742
315 121 0.0080128205128205121
315 122 -4.3368086899420177e-19
315 123 -0.024679487179487168
315 157 -0.00040064102564102563
315 158 0.0066773504273504244
315 159 -0.013194444444444437
315 160 0.0020032051282051267
315 161 0.0033386752136752127
315 162 -0.0068376068376068315
315 274 0
315 275 4.3368086899420177e-19
315 276 0.022008547008547007
315 277 -9.7578195523695399e-19
315 278 6.5052130349130266e-19
315 279 0.01004273504273504
315 313 3.4694469519536142e-18
315 314 -2.6020852139652106e-18
315 315 0.10940170940170937
316 79 -0.0027866809116809102
316 80 -0.0010016025641025636
316 81 -0.0020032051282051276
316 82 -0.0077813390313390277
316 83 1.6263032587282567e-19
316 84 4.87890977618477e-19
316 85 -0.0027866809116809115
316 86 0.0010016025641025636
316 87 0.002003205128205128
316 118 -0.0084757834757834723
316 119 2.7105054312137611e-20
316 120 -0.0080128205128205104
316 121 -0.020441595441595441
316 122 0
316 123 0
316 124 -0.0084757834757834757
316 125 -5.4210108624275222e-20
316 126 0.0080128205128205121
316 157 -0.0027866809116809097
316 158 0.0010016025641025636
316 159 -0.0020032051282051263
316 160 -0.0077813390313390286
316 161 -1.6263032587282567e-19
316 162 5.4210108624275222e-19
316 163 -0.0027866809116809102
316 164 -0.0010016025641025636
316 165 0.0020032051282051267
316 274 -0.00046296296296296266
316 275 -0.0040064102564102552
316 276 4.3368086899420177e-19
316 277 0.011609686609686615
316 278 5.4210108624275222e-19
316 279 -4.3368086899420177e-19
316 280 -0.00046296296296296255
316 281 0.0040064102564102561
316 282 -5.4210108624275222e-19
316 313 0.0088319088319088242
316 314 2.7105054312137611e-19
316 315 -1.0842021724855044e-19
316 316 0.089173789173789167
317 79 -0.0010016025641025636
317 80 -0.0034989316239316215
317 81 -0.0033386752136752114
317 82 1.3552527156068805e-19
317 83 -0.013034188034188026
317 84 -0.013354700854700849
317 85 0.0010016025641025636
317 86 -0.0034989316239316219
317 87 -0.0033386752136752122
317 118 5.4210108624275222e-20
317 119 -0.0046474358974358965
317 120 -1.0842021724855044e-19
317 121 -2.1684043449710089e-19
317 122 -0.014743589743589747
317 123 1.3010426069826053e-18
317 124 -8.1315162936412833e-20
317 125 -0.0046474358974359
317 126 2.1684043449710089e-19
317 157 0.0010016025641025636
317 158 -0.0034989316239316219
317 159 0.0033386752136752118
317 160 -1.8973538018496328e-19
317 161 -0.01303418803418803
317 162 0.013354700854700851
317 163 -0.0010016025641025638
317 164 -0.0034989316239316228
317 165 0.0033386752136752127
317 274 -0.0040064102564102561
317 275 -0.003311965811965808
317 276 5.4210108624275222e-19
317 277 9.7578195523695399e-19
317 278 -0.0094017094017093891
317 279 3.2526065174565133e-18
317 280 0.0040064102564102552
317 281 -0.003311965811965808
317 282 -4.3368086899420177e-19
317 313 5.4210108624275222e-20
317 314 0.024145299145299136
317 315 -1.7347234759768071e-18
317 316 -8.6736173798840355e-19
317 317 0.11196581196581193
318 79 -0.002003205128205128
318 80 -0.0033386752136752114
318 81 -0.0068376068376068333
318 82 2.7105054312137611e-19
318 83 -0.013354700854700849
318 84 -0.026388888888888878
318 85 0.002003205128205128
318 86 -0.0033386752136752127
318 87 -0.0068376068376068367
318 118 -0.0080128205128205121
318 119 -3.2526065174565133e-19
318 120 -0.024679487179487168
318 121 -3.2526065174565133e-19
318 122 2.1684043449710089e-19
318 123 -0.094871794871794854
318 124 0.0080128205128205121
318 125 2.1684043449710089e-19
318 126 -0.024679487179487179
318 157 -0.0020032051282051267
318 158 0.0033386752136752122
318 159 -0.0068376068376068315
318 160 6.5052130349130266e-19
318 161 0.013354700854700852
318 162 -0.026388888888888875
318 163 0.0020032051282051272
318 164 0.0033386752136752127
318 165 -0.0068376068376068341
318 274 5.4210108624275222e-19
318 275 5.4210108624275222e-19
318 276 0.010042735042735042
318 277 -8.6736173798840355e-19
318 278 2.6020852139652106e-18
318 279 0.044017094017094013
318 280 -2.1684043449710089e-19
318 281 -8.6736173798840355e-19
318 282 0.010042735042735042
318 313 1.5178830414797062e-18
318 314 -1.3010426069826053e-18
318 315 0.050854700854700834
318 316 -6.9388939039072284e-18
318 317 -6.9388939039072284e-18
318 318 0.21880341880341875
319 82 -0.0027866809116809097
319 83 -0.0010016025641025636
319 84 -0.0020032051282051276
319 85 -0.0077813390313390286
319 86 1.6263032587282567e-19
319 87 5.9631119486702744e-19
319 88 -0.0027866809116809106
319 89 0.0010016025641025636
319 90 0.002003205128205128
319 121 -0.0084757834757834723
319 122 5.4210108624275222e-20
319 123 -0.0080128205128205104
319 124 -0.020441595441595448
319 125 -2.1684043449710089e-19
319 126 5.4210108624275222e-19
319 127 -0.0084757834757834757
319 128 -2.7105054312137611e-19
319 129 0.0080128205128205121
319 160 -0.0027866809116809093
319 161 0.0010016025641025636
319 162 -0.0020032051282051267
319 163 -0.0077813390313390277
319 164 -1.0842021724855044e-19
319 165 5.4210108624275222e-19
319 166 -0.0027866809116809102
319 167 -0.0010016025641025636
319 168 0.0020032051282051272
319 277 -0.00046296296296296222
319 278 -0.0040064102564102552
319 279 1.1384122811097797e-18
319 280 0.011609686609686616
319 281 5.9631119486702744e-19
319 282 -4.3368086899420177e-19
319 283 -0.00046296296296296179
319 284 0.0040064102564102561
319 285 -1.3552527156068805e-18
319 316 0.0088319088319088242
319 317 -2.1684043449710089e-19
319 318 2.7105054312137611e-18
319 319 0.089173789173789167
320 82 -0.0010016025641025636
320 83 -0.003498931623931621
320 84 -0.0033386752136752118
320 85 2.1684043449710089e-19
320 86 -0.013034188034188026
320 87 -0.013354700854700851
320 88 0.0010016025641025636
320 89 -0.0034989316239316215
320 90 -0.0033386752136752118
320 121 1.0842021724855044e-19
320 122 -0.0046474358974358948
320 123 1.0842021724855044e-19
320 124 -2.1684043449710089e-19
320 125 -0.014743589743589752
320 126 6.5052130349130266e-19
320 127 -2.1684043449710089e-19
320 128 -0.0046474358974358983
320 129 6.5052130349130266e-19
320 160 0.0010016025641025636
320 161 -0.0034989316239316215
320 162 0.0033386752136752114
320 163 -1.0842021724855044e-19
320 164 -0.01303418803418803
320 165 0.013354700854700852
320 166 -0.0010016025641025636
320 167 -0.0034989316239316219
320 168 0.0033386752136752122
320 277 -0.0040064102564102552
320 278 -0.003311965811965808
320 279 2.6020852139652106e-18
320 280 6.5052130349130266e-19
320 281 -0.0094017094017093874
320 282 3.4694469519536142e-18
320 283 0.0040064102564102552
320 284 -0.0033119658119658063
320 285 3.2526065174565133e-19
320 316 2.7105054312137611e-19
320 317 0.024145299145299132
320 318 -8.6736173798840355e-19
320 319 8.6736173798840355e-19
320 320 0.11196581196581196
321 82 -0.002003205128205128
321 83 -0.0033386752136752118
321 84 -0.0068376068376068324
321 85 3.2526065174565133e-19
321 86 -0.013354700854700851
321 87 -0.026388888888888882
321 88 0.002003205128205128
321 89 -0.0033386752136752122
321 90 -0.006837606837606835
321 121 -0.0080128205128205121
321 122 1.0842021724855044e-19
321 123 -0.024679487179487165
321 124 -3.2526065174565133e-19
321 125 -1.0842021724855044e-18
321 126 -0.094871794871794868
321 127 0.0080128205128205121
321 128 8.6736173798840355e-19
321 129 -0.024679487179487175
321 160 -0.0020032051282051267
321 161 0.0033386752136752122
321 162 -0.0068376068376068307
321 163 4.87890977618477e-19
321 164 0.013354700854700852
321 165 -0.026388888888888878
321 166 0.0020032051282051267
321 167 0.0033386752136752131
321 168 -0.0068376068376068333
321 277 1.0299920638612292e-18
321 278 2.1684043449710089e-18
321 279 0.010042735042735042
321 280 -8.6736173798840355e-19
321 281 4.9873299934333204e-18
321 282 0.044017094017094027
321 283 -1.1926223897340549e-18
321 284 9.7578195523695399e-19
321 285 0.010042735042735043
321 316 3.3610267347050637e-18
321 317 -1.7347234759768071e-18
321 318 0.050854700854700834
321 319 -2.6020852139652106e-18
321 320 -9.540979117872439e-18
321 321 0.21880341880341878
322 85 -0.0027866809116809106
322 86 -0.0010016025641025636
322 87 -0.002003205128205128
322 88 -0.0077813390313390268
322 89 1.8973538018496328e-19
322 90 5.4210108624275222e-19
322 91 -0.0027866809116809106
322 92 0.0010016025641025638
322 93 0.0020032051282051276
322 124 -0.0084757834757834775
322 125 -5.4210108624275222e-20
322 126 -0.0080128205128205121
322 127 -0.020441595441595441
322 128 -2.1684043449710089e-19
322 129 -1.0842021724855044e-18
322 130 -0.0084757834757834723
322 131 -8.1315162936412833e-20
322 132 0.0080128205128205121
322 163 -0.0027866809116809102
322 164 0.0010016025641025636
322 165 -0.0020032051282051267
322 166 -0.0077813390313390251
322 167 -8.1315162936412833e-20
322 168 2.7105054312137611e-19
322 169 -0.0027866809116809093
322 170 -0.0010016025641025636
322 171 0.0020032051282051267
322 280 -0.00046296296296296152
322 281 -0.0040064102564102552
322 282 3.7947076036992655e-19
322 283 0.011609686609686615
322 284 9.2157184661267877e-19
322 285 4.3368086899420177e-19
322 286 -0.00046296296296296439
322 287 0.0040064102564102561
322 288 -8.1315162936412833e-19
322 319 0.0088319088319088294
322 320 -3.2526065174565133e-19
322 321 1.0842021724855044e-19
322 322 0.089173789173789153
323 85 -0.0010016025641025636
323 86 -0.0034989316239316223
323 87 -0.0033386752136752127
323 88 1.8973538018496328e-19
323 89 -0.013034188034188026
323 90 -0.013354700854700849
323 91 0.0010016025641025638
323 92 -0.003498931623931621
323 93 -0.0033386752136752109
323 124 -5.4210108624275222e-20
323 125 -0.0046474358974359
323 126 -5.4210108624275222e-19
323 127 -2.1684043449710089e-19
323 128 -0.014743589743589747
323 129 -2.1684043449710089e-19
323 130 -8.1315162936412833e-20
323 131 -0.0046474358974358965
323 132 -2.1684043449710089e-19
323 163 0.0010016025641025636
323 164 -0.0034989316239316219
323 165 0.0033386752136752118
323 166 -1.3552527156068805e-19
323 167 -0.01303418803418803
323 168 0.013354700854700849
323 169 -0.0010016025641025638
323 170 -0.003498931623931621
323 171 0.0033386752136752114
323 280 -0.0040064102564102552
323 281 -0.003311965811965808
323 282 -6.5052130349130266e-19
323 283 8.1315162936412833e-19
323 284 -0.0094017094017093874
323 285 4.3368086899420177e-18
323 286 0.0040064102564102552
323 287 -0.0033119658119658076
323 288 2.1684043449710089e-19
323 319 -4.3368086899420177e-19
323 320 0.024145299145299136
323 321 -4.3368086899420177e-19
323 322 -4.3368086899420177e-19
323 323 0.11196581196581193
324 85 -0.002003205128205128
324 86 -0.0033386752136752127
324 87 -0.006837606837606835
324 88 2.7105054312137611e-19
324 89 -0.013354700854700849
324 90 -0.026388888888888878
324 91 0.0020032051282051285
324 92 -0.0033386752136752114
324 93 -0.0068376068376068324
324 124 -0.0080128205128205121
324 125 -3.2526065174565133e-19
324 126 -0.024679487179487182
324 127 -4.3368086899420177e-19
324 128 -2.1684043449710089e-19
324 129 -0.09487179487179484
324 130 0.0080128205128205121
324 131 2.1684043449710089e-19
324 132 -0.024679487179487165
324 163 -0.0020032051282051272
324 164 0.0033386752136752122
324 165 -0.006837606837606835
324 166 4.87890977618477e-19
324 167 0.013354700854700851
324 168 -0.026388888888888871
324 169 0.0020032051282051272
324 170 0.0033386752136752114
324 171 -0.0068376068376068298
324 280 2.7105054312137611e-19
324 281 -4.3368086899420177e-19
324 282 0.010042735042735043
324 283 0
324 284 2.3852447794681098e-18
324 285 0.044017094017094013
324 286 -4.87890977618477e-19
324 287 -8.6736173798840355e-19
324 288 0.010042735042735038
324 319 -1.0842021724855044e-19
324 320 -4.3368086899420177e-19
324 321 0.050854700854700848
324 322 -8.6736173798840355e-19
324 323 -3.4694469519536142e-18
324 324 0.21880341880341875
325 88 -0.0027866809116809097
325 89 -0.0010016025641025638
325 90 -0.002003205128205128
325 91 -0.0077813390313390286
325 92 1.0842021724855044e-19
325 93 5.9631119486702744e-19
325 94 -0.002786680911680911
325 95 0.0010016025641025638
325 96 0.002003205128205128
325 127 -0.0084757834757834723
325 128 2.7105054312137611e-20
325 129 -0.0080128205128205104
325 130 -0.020441595441595448
325 131 4.3368086899420177e-19
325 132 3.2526065174565133e-19
325 133 -0.0084757834757834757
325 134 -2.1684043449710089e-19
325 135 0.0080128205128205121
325 166 -0.0027866809116809084
325 167 0.0010016025641025636
325 168 -0.0020032051282051263
325 169 -0.0077813390313390277
325 170 -2.7105054312137611e-20
325 171 6.5052130349130266e-19
325 172 -0.0027866809116809106
325 173 -0.0010016025641025638
325 174 0.0020032051282051263
325 283 -0.00046296296296296363
325 284 -0.0040064102564102552
325 285 9.7578195523695399e-19
325 286 0.011609686609686615
325 287 5.9631119486702744e-19
325 288 0
325 289 -0.00046296296296296016
325 290 0.0040064102564102561
325 291 -1.5178830414797062e-18
325 322 0.0088319088319088173
325 323 -1.0842021724855044e-19
325 324 1.4094628242311558e-18
325 325 0.089173789173789167
326 88 -0.0010016025641025636
326 89 -0.0034989316239316202
326 90 -0.0033386752136752109
326 91 1.3552527156068805e-19
326 92 -0.01303418803418803
326 93 -0.013354700854700852
326 94 0.0010016025641025636
326 95 -0.0034989316239316223
326 96 -0.0033386752136752131
326 127 5.4210108624275222e-20
326 128 -0.0046474358974358948
326 129 0
326 130 0
326 131 -0.01474358974358975
326 132 -1.0842021724855044e-18
326 133 -1.3552527156068805e-19
326 134 -0.0046474358974358983
326 135 2.1684043449710089e-19
326 166 0.0010016025641025636
326 167 -0.003498931623931621
326 168 0.0033386752136752109
326 169 -1.0842021724855044e-19
326 170 -0.01303418803418803
326 171 0.013354700854700852
326 172 -0.0010016025641025636
326 173 -0.0034989316239316232
326 174 0.003338675213675214
326 283 -0.0040064102564102561
326 284 -0.0033119658119658071
326 285 1.1926223897340549e-18
326 286 2.1684043449710089e-19
326 287 -0.0094017094017093891
326 288 4.1199682554449168e-18
326 289 0.0040064102564102552
326 290 -0.0033119658119658071
326 291 1.0842021724855044e-18
326 322 -1.0842021724855044e-19
326 323 0.024145299145299122
326 324 4.3368086899420177e-19
326 325 4.3368086899420177e-19
326 326 0.11196581196581196
327 88 -0.002003205128205128
327 89 -0.0033386752136752109
327 90 -0.0068376068376068307
327 91 3.7947076036992655e-19
327 92 -0.013354700854700852
327 93 -0.026388888888888882
327 94 0.002003205128205128
327 95 -0.0033386752136752135
327 96 -0.0068376068376068367
327 127 -0.0080128205128205104
327 128 0
327 129 -0.024679487179487161
327 130 -5.4210108624275222e-19
327 131 -2.1684043449710089e-18
327 132 -0.094871794871794868
327 133 0.0080128205128205121
327 134 1.5178830414797062e-18
327 135 -0.024679487179487182
327 166 -0.0020032051282051267
327 167 0.0033386752136752118
327 168 -0.0068376068376068281
327 169 6.5052130349130266e-19
327 170 0.013354700854700852
327 171 -0.026388888888888871
327 172 0.0020032051282051267
327 173 0.003338675213675214
327 174 -0.006837606837606835
327 283 1.0299920638612292e-18
327 284 9.7578195523695399e-19
327 285 0.010042735042735038
327 286 -4.3368086899420177e-19
327 287 4.9873299934333204e-18
327 288 0.044017094017094027
327 289 -1.1384122811097797e-18
327 290 6.5052130349130266e-19
327 291 0.010042735042735047
327 322 1.951563910473908e-18
327 323 -4.3368086899420177e-19
327 324 0.050854700854700813
327 325 -8.6736173798840355e-19
327 326 -1.0408340855860843e-17
327 327 0.2188034188034188
328 91 -0.0027866809116809119
328 92 -0.0010016025641025638
328 93 -0.0020032051282051285
328 94 -0.0077813390313390303
328 95 8.1315162936412833e-20
328 96 5.9631119486702744e-19
328 97 -0.0027866809116809102
328 98 0.0010016025641025638
328 99 0.0020032051282051276
328 130 -0.0084757834757834792
328 131 -1.0842021724855044e-19
328 132 -0.0080128205128205121
328 133 -0.020441595441595451
328 134 -2.1684043449710089e-19
328 135 -5.4210108624275222e-19
328 136 -0.0084757834757834723
328 137 2.439454888092385e-19
328 138 0.0080128205128205121
328 169 -0.002786680911680911
328 170 0.0010016025641025636
328 171 -0.0020032051282051263
328 172 -0.0077813390313390286
328 173 -8.1315162936412833e-20
328 174 4.3368086899420177e-19
328 175 -0.0027866809116809093
328 176 -0.0010016025641025636
328 177 0.0020032051282051267
328 286 -0.00046296296296296049
328 287 -0.0040064102564102561
328 288 3.2526065174565133e-19
328 289 0.011609686609686615
328 290 6.5052130349130266e-19
328 291 4.3368086899420177e-19
328 292 -0.00046296296296296439
328 293 0.0040064102564102561
328 294 -1.1384122811097797e-18
328 325 0.0088319088319088399
328 326 -3.7947076036992655e-19
328 327 -1.1926223897340549e-18
328 328 0.089173789173789181
329 91 -0.0010016025641025638
329 92 -0.0034989316239316236
329 93 -0.003338675213675214
329 94 8.1315162936412833e-20
329 95 -0.01303418803418803
329 96 -0.013354700854700851
329 97 0.001001602564102564
329 98 -0.0034989316239316219
329 99 -0.0033386752136752122
329 130 -1.3552527156068805e-19
329 131 -0.0046474358974359017
329 132 -9.7578195523695399e-19
329 133 -2.1684043449710089e-19
329 134 -0.014743589743589752
329 135 -2.1684043449710089e-18
329 136 2.439454888092385e-19
329 137 -0.0046474358974358965
329 138 -1.0842021724855044e-18
329 169 0.0010016025641025634
329 170 -0.0034989316239316236
329 171 0.0033386752136752135
329 172 -8.1315162936412833e-20
329 173 -0.013034188034188033
329 174 0.013354700854700856
329 175 -0.0010016025641025636
329 176 -0.0034989316239316215
329 177 0.0033386752136752109
329 286 -0.0040064102564102561
329 287 -0.0033119658119658097
329 288 -8.6736173798840355e-19
329 289 4.3368086899420177e-19
329 290 -0.0094017094017093909
329 291 6.5052130349130266e-18
329 292 0.0040064102564102561
329 293 -0.0033119658119658097
329 294 -9.7578195523695399e-19
329 325 -5.9631119486702744e-19
329 326 0.02414529914529915
329 327 1.3010426069826053e-18
329 328 -4.3368086899420177e-19
329 329 0.11196581196581198
330 91 -0.0020032051282051285
330 92 -0.0033386752136752144
330 93 -0.0068376068376068402
330 94 7.0473141211557788e-19
330 95 -0.013354700854700852
330 96 -0.026388888888888885
330 97 0.002003205128205128
330 98 -0.0033386752136752122
330 99 -0.0068376068376068324
330 130 -0.0080128205128205121
330 131 -5.4210108624275222e-19
330 132 -0.024679487179487192
330 133 3.2526065174565133e-19
330 134 -2.6020852139652106e-18
330 135 -0.094871794871794882
330 136 0.0080128205128205104
330 137 -1.8431436932253575e-18
330 138 -0.024679487179487168
330 169 -0.0020032051282051267
330 170 0.0033386752136752144
330 171 -0.0068376068376068367
330 172 3.7947076036992655e-19
330 173 0.013354700854700856
330 174 -0.026388888888888878
330 175 0.0020032051282051272
330 176 0.0033386752136752114
330 177 -0.0068376068376068315
330 286 3.2526065174565133e-19
330 287 -1.0842021724855044e-18
330 288 0.010042735042735049
330 289 0
330 290 6.7220534694101275e-18
330 291 0.044017094017094027
330 292 -7.589415207398531e-19
330 293 0
330 294 0.010042735042735038
330 325 -1.0842021724855044e-19
330 326 8.6736173798840355e-19
330 327 0.050854700854700861
330 328 8.6736173798840355e-19
330 329 -1.3010426069826053e-17
330 330 0.2188034188034188
331 94 -0.0027866809116809097
331 95 -0.0010016025641025636
331 96 -0.002003205128205128
331 97 -0.0077813390313390294
331 98 1.6263032587282567e-19
331 99 2.1684043449710089e-19
331 100 -0.0027866809116809123
331 101 0.0010016025641025636
331 102 0.002003205128205128
331 133 -0.0084757834757834723
331 134 4.6078592330633938e-19
331 135 -0.0080128205128205104
331 136 -0.020441595441595448
331 137 0
331 138 -1.1926223897340549e-18
331 139 -0.0084757834757834809
331 140 -4.87890977618477e-19
331 141 0.0080128205128205121
331 172 -0.0027866809116809102
331 173 0.0010016025641025636
331 174 -0.0020032051282051267
331 175 -0.0077813390313390303
331 176 -1.6263032587282567e-19
331 177 3.2526065174565133e-19
331 178 -0.0027866809116809123
331 179 -0.0010016025641025638
331 180 0.0020032051282051272
331 289 -0.00046296296296296238
331 290 -0.0040064102564102543
331 291 5.4210108624275222e-19
331 292 0.011609686609686615
331 293 5.4210108624275222e-19
331 294 -4.3368086899420177e-19
331 295 -0.00046296296296295962
331 296 0.0040064102564102543
331 297 5.4210108624275222e-20
331 328 0.0088319088319088208
331 329 1.4094628242311558e-18
331 330 1.0842021724855044e-19
331 331 0.089173789173789167
332 94 -0.0010016025641025636
332 95 -0.0034989316239316206
332 96 -0.0033386752136752114
332 97 2.7105054312137611e-19
332 98 -0.01303418803418803
332 99 -0.013354700854700852
332 100 0.0010016025641025636
332 101 -0.0034989316239316236
332 102 -0.0033386752136752127
332 133 3.7947076036992655e-19
332 134 -0.0046474358974358965
332 135 1.5178830414797062e-18
332 136 0
332 137 -0.014743589743589748
332 138 2.1684043449710089e-19
332 139 -4.6078592330633938e-19
332 140 -0.0046474358974359035
332 141 1.951563910473908e-18
332 172 0.0010016025641025636
332 173 -0.0034989316239316219
332 174 0.0033386752136752122
332 175 -1.3552527156068805e-19
332 176 -0.013034188034188033
332 177 0.013354700854700852
332 178 -0.0010016025641025638
332 179 -0.0034989316239316258
332 180 0.0033386752136752148
332 289 -0.0040064102564102561
332 290 -0.0033119658119658054
332 291 -1.0842021724855044e-19
332 292 6.5052130349130266e-19
332 293 -0.0094017094017093926
332 294 1.5178830414797062e-18
332 295 0.0040064102564102543
332 296 -0.0033119658119658054
332 297 -1.0842021724855044e-18
332 328 1.3010426069826053e-18
332 329 0.024145299145299129
332 330 1.7347234759768071e-18
332 331 0
332 332 0.11196581196581196
333 94 -0.002003205128205128
333 95 -0.0033386752136752114
333 96 -0.0068376068376068333
333 97 -1.0842021724855044e-19
333 98 -0.013354700854700852
333 99 -0.026388888888888885
333 100 0.002003205128205128
333 101 -0.0033386752136752135
333 102 -0.0068376068376068402
333 133 -0.0080128205128205121
333 134 2.0599841277224584e-18
333 135 -0.024679487179487168
333 136 -1.4094628242311558e-18
333 137 -1.0842021724855044e-18
333 138 -0.094871794871794882
333 139 0.0080128205128205138
333 140 1.7347234759768071e-18
333 141 -0.024679487179487196
333 172 -0.0020032051282051267
333 173 0.0033386752136752118
333 174 -0.0068376068376068324
333 175 2.7105054312137611e-19
333 176 0.013354700854700854
333 177 -0.026388888888888878
333 178 0.0020032051282051272
333 179 0.0033386752136752153
333 180 -0.0068376068376068402
333 289 5.4210108624275222e-19
333 290 -1.3010426069826053e-18
333 291 0.010042735042735038
333 292 -1.7347234759768071e-18
333 293 2.6020852139652106e-18
333 294 0.04401709401709402
333 295 5.4210108624275222e-19
333 296 -1.6263032587282567e-18
333 297 0.010042735042735047
333 328 1.3010426069826053e-18
333 329 2.6020852139652106e-18
333 330 0.05085470085470082
333 331 -6.0715321659188248e-18
333 332 -4.3368086899420177e-18
333 333 0.2188034188034188
334 97 -0.0027866809116809106
334 98 -0.0010016025641025638
334 99 -0.0020032051282051276
334 100 -0.0077813390313390251
334 101 1.0842021724855044e-19
334 102 6.5052130349130266e-19
334 103 -0.002786680911680908
334 104 0.001001602564102564
334 105 0.0020032051282051276
334 136 -0.0084757834757834723
334 137 -3.5236570605778894e-19
334 138 -0.0080128205128205086
334 139 -0.020441595441595437
334 140 -8.6736173798840355e-19
334 141 0
334 142 -0.0084757834757834653
334 143 8.9446679230054116e-19
334 144 0.0080128205128205104
334 175 -0.0027866809116809093
334 176 0.0010016025641025636
334 177 -0.0020032051282051267
334 178 -0.0077813390313390242
334 179 -3.2526065174565133e-19
334 180 4.87890977618477e-19
334 181 -0.0027866809116809058
334 182 -0.0010016025641025636
334 183 0.0020032051282051267
334 292 -0.00046296296296296092
334 293 -0.0040064102564102552
334 294 1.4094628242311558e-18
334 295 0.011609686609686615
334 296 2.1684043449710089e-19
334 297 -4.3368086899420177e-19
334 298 -0.00046296296296296889
334 299 0.0040064102564102561
334 300 -1.8431436932253575e-18
334 331 0.0088319088319088399
334 332 -1.5720931501039814e-18
334 333 3.903127820947816e-18
334 334 0.089173789173789125
335 97 -0.0010016025641025636
335 98 -0.0034989316239316228
335 99 -0.0033386752136752127
335 100 1.3552527156068805e-19
335 101 -0.013034188034188023
335 102 -0.013354700854700845
335 103 0.001001602564102564
335 104 -0.0034989316239316184
335 105 -0.0033386752136752079
335 136 -3.5236570605778894e-19
335 137 -0.0046474358974358965
335 138 -2.1684043449710089e-18
335 139 -8.6736173798840355e-19
335 140 -0.014743589743589743
335 141 -2.8189256484623115e-18
335 142 8.4025668367626594e-19
335 143 -0.0046474358974358896
335 144 -5.3125906451789717e-18
335 175 0.0010016025641025636
335 176 -0.0034989316239316223
335 177 0.0033386752136752131
335 178 -2.7105054312137611e-19
335 179 -0.013034188034188026
335 180 0.013354700854700845
335 181 -0.0010016025641025634
335 182 -0.0034989316239316154
335 183 0.0033386752136752066
335 292 -0.0040064102564102552
335 293 -0.0033119658119658106
335 294 3.6862873864507151e-18
335 295 2.7105054312137611e-19
335 296 -0.0094017094017093822
335 297 2.1684043449710089e-18
335 298 0.0040064102564102561
335 299 -0.0033119658119658115
335 300 4.6620693416876691e-18
335 331 -1.6805133673525319e-18
335 332 0.024145299145299153
335 333 -3.0357660829594124e-18
335 334 -1.7347234759768071e-18
335 335 0.11196581196581191
336 97 -0.002003205128205128
336 98 -0.0033386752136752135
336 99 -0.0068376068376068341
336 100 5.9631119486702744e-19
336 101 -0.013354700854700845
336 102 -0.026388888888888871
336 103 0.0020032051282051276
336 104 -0.0033386752136752079
336 105 -0.0068376068376068255
336 136 -0.0080128205128205121
336 137 -2.1684043449710089e-18
336 138 -0.024679487179487172
336 139 -6.5052130349130266e-19
336 140 -2.1684043449710089e-18
336 141 -0.094871794871794826
336 142 0.0080128205128205086
336 143 -4.6620693416876691e-18
336 144 -0.024679487179487133
336 175 -0.0020032051282051267
336 176 0.0033386752136752135
336 177 -0.0068376068376068333
336 178 4.3368086899420177e-19
336 179 0.013354700854700845
336 180 -0.026388888888888865
336 181 0.0020032051282051263
336 182 0.0033386752136752075
336 183 -0.006837606837606822
336 292 1.5178830414797062e-18
336 293 3.0357660829594124e-18
336 294 0.010042735042735047
336 295 0
336 296 6.0715321659188248e-18
336 297 0.044017094017093999
336 298 -1.6263032587282567e-18
336 299 4.4452289071905682e-18
336 300 0.010042735042735026
336 331 5.0957502106818708e-18
336 332 -3.4694469519536142e-18
336 333 0.050854700854700868
336 334 -2.6020852139652106e-18
336 335 -2.6020852139652106e-18
336 336 0.21880341880341869
337 100 -0.0027866809116809084
337 101 -0.0010016025641025634
337 102 -0.002003205128205128
337 103 -0.0077813390313390251
337 104 -2.7105054312137611e-19
337 105 1.6263032587282567e-19
337 106 -0.0027866809116809136
337 107 0.0010016025641025638
337 108 0.0020032051282051285
337 139 -0.0084757834757834723
337 140 1.0028870095490916e-18
337 141 -0.0080128205128205104
337 142 -0.02044159544159543
337 143 -1.7347234759768071e-18
337 144 -2.0599841277224584e-18
337 145 -0.0084757834757834844
337 146 6.5052130349130266e-19
337 147 0.0080128205128205156
337 178 -0.0027866809116809089
337 179 0.0010016025641025638
337 180 -0.0020032051282051263
337 181 -0.0077813390313390234
337 182 -4.6078592330633938e-19
337 183 1.0842021724855044e-19
337 184 -0.0027866809116809123
337 185 -0.0010016025641025634
337 186 0.0020032051282051272
337 295 -0.00046296296296296488
337 296 -0.0040064102564102543
337 297 -2.7105054312137611e-19
337 298 0.011609686609686615
337 299 -1.2468324983583301e-18
337 300 -1.3010426069826053e-18
337 301 -0.00046296296296296255
337 302 0.0040064102564102561
337 303 1.4094628242311558e-18
337 334 0.008831908831908793
337 335 3.7404974950749903e-18
337 336 -3.3610267347050637e-18
337 337 0.089173789173789153
338 100 -0.0010016025641025634
338 101 -0.0034989316239316171
338 102 -0.0033386752136752062
338 103 -3.2526065174565133e-19
338 104 -0.013034188034188023
338 105 -0.013354700854700845
338 106 0.0010016025641025638
338 107 -0.0034989316239316267
338 108 -0.0033386752136752161
338 139 9.7578195523695399e-19
338 140 -0.0046474358974358948
338 141 3.6862873864507151e-18
338 142 -1.7347234759768071e-18
338 143 -0.01474358974358974
338 144 2.1684043449710089e-18
338 145 7.0473141211557788e-19
338 146 -0.0046474358974359078
338 147 -2.0599841277224584e-18
338 178 0.0010016025641025638
338 179 -0.0034989316239316202
338 180 0.0033386752136752101
338 181 -5.4210108624275222e-19
338 182 -0.013034188034188023
338 183 0.013354700854700842
338 184 -0.0010016025641025634
338 185 -0.0034989316239316245
338 186 0.0033386752136752135
338 295 -0.0040064102564102543
338 296 -0.0033119658119657993
338 297 1.3010426069826053e-18
338 298 -1.1926223897340549e-18
338 299 -0.0094017094017093822
338 300 -4.3368086899420177e-19
338 301 0.0040064102564102561
338 302 -0.0033119658119658136
338 303 -9.1072982488782372e-18
338 334 3.6862873864507151e-18
338 335 0.024145299145299098
338 336 -8.2399365108898337e-18
338 337 -6.9388939039072284e-18
338 338 0.1119658119658119
339 100 -0.002003205128205128
339 101 -0.0033386752136752066
339 102 -0.0068376068376068298
339 103 -1.6263032587282567e-19
339 104 -0.013354700854700849
339 105 -0.026388888888888871
339 106 0.0020032051282051285
339 107 -0.0033386752136752161
339 108 -0.0068376068376068463
339 139 -0.0080128205128205121
339 140 4.87890977618477e-18
339 141 -0.024679487179487154
339 142 -2.1684043449710089e-18
339 143 2.6020852139652106e-18
339 144 -0.094871794871794826
339 145 0.0080128205128205121
339 146 -1.8431436932253575e-18
339 147 -0.024679487179487217
339 178 -0.0020032051282051267
339 179 0.0033386752136752105
339 180 -0.0068376068376068289
339 181 1.0842021724855044e-19
339 182 0.013354700854700844
339 183 -0.026388888888888861
339 184 0.0020032051282051272
339 185 0.0033386752136752122
339 186 -0.0068376068376068428
339 295 -2.1684043449710089e-19
339 296 -3.2526065174565133e-19
339 297 0.010042735042735031
339 298 -1.3010426069826053e-18
339 299 -4.7704895589362195e-18
339 300 0.044017094017093999
339 301 1.5720931501039814e-18
339 302 -9.4325589006238886e-18
339 303 0.010042735042735045
339 334 -1.5178830414797062e-18
339 335 -5.6378512969246231e-18
339 336 0.050854700854700771
339 337 -7.8062556418956319e-18
339 338 9.540979117872439e-18
339 339 0.21880341880341869
340 103 -0.0027866809116809084
340 104 -0.0010016025641025636
340 105 -0.0020032051282051276
340 106 -0.0077813390313390338
340 107 2.1684043449710089e-19
340 108 7.0473141211557788e-19
340 109 -0.0027866809116809097
340 110 0.0010016025641025634
340 111 0.0020032051282051276
340 142 -0.0084757834757834653
340 143 8.1315162936412833e-19
340 144 -0.0080128205128205086
340 145 -0.020441595441595461
340 146 0
340 147 -6.5052130349130266e-19
340 148 -0.0084757834757834688
340 149 -1.0028870095490916e-18
340 150 0.0080128205128205104
340 181 -0.0027866809116809084
340 182 0.0010016025641025638
340 183 -0.0020032051282051259
340 184 -0.0077813390313390338
340 185 -1.3552527156068805e-19
340 186 1.6263032587282567e-19
340 187 -0.0027866809116809097
340 188 -0.001001602564102564
340 189 0.0020032051282051263
340 298 -0.00046296296296295935
340 299 -0.0040064102564102543
340 300 2.9815559743351372e-18
340 301 0.011609686609686616
340 302 1.0299920638612292e-18
340 303 -4.3368086899420177e-19
340 304 -0.00046296296296295772
340 305 0.0040064102564102552
340 306 -2.7105054312137611e-18
340 337 0.0088319088319088346
340 338 2.927345865710862e-18
340 339 1.0083080204115191e-17
340 340 0.089173789173789195
341 103 -0.0010016025641025634
341 104 -0.0034989316239316193
341 105 -0.0033386752136752114
341 106 3.2526065174565133e-19
341 107 -0.013034188034188033
341 108 -0.013354700854700852
341 109 0.0010016025641025634
341 110 -0.0034989316239316202
341 111 -0.0033386752136752118
341 142 8.1315162936412833e-19
341 143 -0.0046474358974358896
341 144 6.5052130349130266e-18
341 145 0
341 146 -0.014743589743589757
341 147 -4.1199682554449168e-18
341 148 -8.4025668367626594e-19
341 149 -0.0046474358974358931
341 150 3.6862873864507151e-18
341 181 0.0010016025641025638
341 182 -0.0034989316239316223
341 183 0.0033386752136752122
341 184 -1.3552527156068805e-19
341 185 -0.013034188034188036
341 186 0.013354700854700861
341 187 -0.0010016025641025638
341 188 -0.0034989316239316236
341 189 0.0033386752136752144
341 298 -0.0040064102564102543
341 299 -0.0033119658119658032
341 300 1.0842021724855044e-18
341 301 6.5052130349130266e-19
341 302 -0.0094017094017093926
341 303 1.2793585635328952e-17
341 304 0.0040064102564102543
341 305 -0.0033119658119658028
341 306 6.2883726004159257e-18
341 337 2.9815559743351372e-18
341 338 0.024145299145299143
341 339 6.9388939039072284e-18
341 340 4.3368086899420177e-19
341 341 0.11196581196581198
342 103 -0.0020032051282051276
342 104 -0.0033386752136752114
342 105 -0.0068376068376068272
342 106 4.87890977618477e-19
342 107 -0.013354700854700856
342 108 -0.026388888888888896
342 109 0.0020032051282051276
342 110 -0.0033386752136752118
342 111 -0.0068376068376068324
342 142 -0.0080128205128205086
342 143 4.9873299934333204e-18
342 144 -0.024679487179487147
342 145 -1.6263032587282567e-18
342 146 -5.8546917314217239e-18
342 147 -0.094871794871794923
342 148 0.0080128205128205086
342 149 3.5778671692021646e-18
342 150 -0.024679487179487165
342 181 -0.0020032051282051263
342 182 0.0033386752136752118
342 183 -0.0068376068376068263
342 184 1.6263032587282567e-19
342 185 0.013354700854700859
342 186 -0.026388888888888885
342 187 0.0020032051282051263
342 188 0.0033386752136752148
342 189 -0.0068376068376068307
342 298 2.9815559743351372e-18
342 299 3.903127820947816e-18
342 300 0.010042735042735049
342 301 -4.3368086899420177e-19
342 302 1.4528309111305759e-17
342 303 0.044017094017094041
342 304 -2.2768245622195593e-18
342 305 8.9988780316296868e-18
342 306 0.010042735042735052
342 337 1.1167282376600696e-17
342 338 3.903127820947816e-18
342 339 0.050854700854700854
342 340 -4.3368086899420177e-18
342 341 -2.9490299091605721e-17
342 342 0.21880341880341889
343 106 -0.0027866809116809141
343 107 -0.0010016025641025638
343 108 -0.0020032051282051289
343 109 -0.0077813390313390286
343 110 3.7947076036992655e-19
343 111 1.1384122811097797e-18
343 112 -0.0027866809116809084
343 113 0.0010016025641025636
343 114 0.002003205128205128
343 145 -0.0084757834757834827
343 146 -7.3183646642771549e-19
343 147 -0.0080128205128205121
343 148 -0.020441595441595444
343 149 6.5052130349130266e-19
343 150 2.6020852139652106e-18
343 151 -0.0084757834757834688
343 152 2.7105054312137611e-20
343 153 0.0080128205128205121
343 184 -0.0027866809116809123
343 185 0.0010016025641025634
343 186 -0.0020032051282051272
343 187 -0.0077813390313390286
343 188 1.3552527156068805e-19
343 189 1.3552527156068805e-18
343 190 -0.002786680911680908
343 191 -0.0010016025641025638
343 192 0.0020032051282051272
343 301 -0.00046296296296296081
343 302 -0.0040064102564102561
343 303 -1.1926223897340549e-18
343 304 0.011609686609686615
343 305 1.5720931501039814e-18
343 306 2.1684043449710089e-18
343 307 -0.0004629629629629665
343 308 0.0040064102564102561
343 309 -1.3552527156068805e-18
343 340 0.0088319088319088451
343 341 -3.6862873864507151e-18
343 342 -6.9388939039072284e-18
343 343 0.089173789173789153
344 106 -0.0010016025641025638
344 107 -0.0034989316239316267
344 108 -0.0033386752136752157
344 109 4.87890977618477e-19
344 110 -0.013034188034188026
344 111 -0.013354700854700852
344 112 0.0010016025641025636
344 113 -0.0034989316239316184
344 114 -0.0033386752136752092
344 145 -7.8604657505199071e-19
344 146 -0.0046474358974359069
344 147 -5.7462715141731735e-18
344 148 6.5052130349130266e-19
344 149 -0.01474358974358975
344 150 4.7704895589362195e-18
344 151 -8.1315162936412833e-20
344 152 -0.0046474358974358931
344 153 6.5052130349130266e-19
344 184 0.0010016025641025634
344 185 -0.0034989316239316241
344 186 0.0033386752136752148
344 187 5.4210108624275222e-20
344 188 -0.01303418803418803
344 189 0.013354700854700849
344 190 -0.0010016025641025638
344 191 -0.0034989316239316189
344 192 0.0033386752136752096
344 301 -0.0040064102564102561
344 302 -0.0033119658119658141
344 303 -2.1684043449710089e-19
344 304 1.8431436932253575e-18
344 305 -0.0094017094017093839
344 306 -6.2883726004159257e-18
344 307 0.0040064102564102552
344 308 -0.0033119658119658063
344 309 1.8431436932253575e-18
344 340 -3.5778671692021646e-18
344 341 0.024145299145299157
344 342 -8.6736173798840355e-18
344 343 3.903127820947816e-18
344 344 0.11196581196581193
345 106 -0.0020032051282051285
345 107 -0.0033386752136752166
345 108 -0.0068376068376068463
345 109 1.0842021724855044e-18
345 110 -0.013354700854700852
345 111 -0.026388888888888878
345 112 0.0020032051282051276
345 113 -0.0033386752136752092
345 114 -0.0068376068376068281
345 145 -0.0080128205128205121
345 146 -4.2283884726934673e-18
345 147 -0.024679487179487217
345 148 2.3852447794681098e-18
345 149 7.1557343384043293e-18
345 150 -0.094871794871794868
345 151 0.0080128205128205121
345 152 1.5178830414797062e-18
345 153 -0.024679487179487147
345 184 -0.0020032051282051272
345 185 0.0033386752136752144
345 186 -0.0068376068376068419
345 187 1.1384122811097797e-18
345 188 0.013354700854700849
345 189 -0.026388888888888868
345 190 0.0020032051282051267
345 191 0.0033386752136752092
345 192 -0.0068376068376068272
345 301 -1.3010426069826053e-18
345 302 -1.6263032587282567e-18
345 303 0.010042735042735049
345 304 2.1684043449710089e-18
345 305 -8.0230960763927328e-18
345 306 0.044017094017094013
345 307 -1.1926223897340549e-18
345 308 -1.4094628242311558e-18
345 309 0.010042735042735031
345 340 -6.2883726004159257e-18
345 341 -4.7704895589362195e-18
345 342 0.050854700854700882
345 343 6.0715321659188248e-18
345 344 1.6479873021779667e-17
345 345 0.21880341880341872
346 109 -0.0027866809116809093
346 110 -0.0010016025641025638
346 111 -0.002003205128205128
346 112 -0.0077813390313390286
346 113 3.5236570605778894e-19
346 114 1.6263032587282567e-18
346 115 -0.0027866809116809084
346 116 0.0010016025641025634
346 117 0.0020032051282051272
346 148 -0.0084757834757834723
346 149 8.1315162936412833e-20
346 150 -0.0080128205128205121
346 151 -0.020441595441595444
346 152 4.3368086899420177e-19
346 153 3.1441863002079629e-18
346 154 -0.0084757834757834688
346 155 -1.0570971181733668e-18
346 156 0.0080128205128205104
346 187 -0.0027866809116809093
346 188 0.0010016025641025638
346 189 -0.0020032051282051272
346 190 -0.0077813390313390286
346 191 2.1684043449710089e-19
346 192 1.1384122811097797e-18
346 193 -0.0027866809116809089
346 194 -0.0010016025641025638
346 195 0.0020032051282051263
346 304 -0.00046296296296296591
346 305 -0.0040064102564102561
346 306 -2.1684043449710089e-19
346 307 0.011609686609686615
346 308 1.3552527156068805e-18
346 309 3.4694469519536142e-18
346 310 -0.00046296296296295685
346 311 0.0040064102564102543
346 312 -3.8489177123235407e-18
346 343 0.0088319088319088017
346 344 1.6263032587282567e-19
346 345 -1.1926223897340549e-18
346 346 0.089173789173789167
347 109 -0.0010016025641025636
347 110 -0.0034989316239316193
347 111 -0.0033386752136752101
347 112 3.5236570605778894e-19
347 113 -0.013034188034188028
347 114 -0.013354700854700849
347 115 0.0010016025641025634
347 116 -0.0034989316239316197
347 117 -0.0033386752136752122
347 148 8.1315162936412833e-20
347 149 -0.0046474358974358965
347 150 1.6263032587282567e-18
347 151 4.3368086899420177e-19
347 152 -0.014743589743589754
347 153 -1.0842021724855044e-18
347 154 -9.7578195523695399e-19
347 155 -0.0046474358974358905
347 156 5.3125906451789717e-18
347 187 0.0010016025641025636
347 188 -0.0034989316239316197
347 189 0.0033386752136752092
347 190 5.4210108624275222e-20
347 191 -0.01303418803418803
347 192 0.013354700854700852
347 193 -0.0010016025641025638
347 194 -0.0034989316239316232
347 195 0.003338675213675214
347 304 -0.0040064102564102552
347 305 -0.0033119658119658063
347 306 -2.927345865710862e-18
347 307 1.3010426069826053e-18
347 308 -0.0094017094017093839
347 309 1.0191500421363742e-17
347 310 0.0040064102564102543
347 311 -0.0033119658119658019
347 312 8.8904578143811364e-18
347 343 1.0842021724855044e-19
347 344 0.024145299145299108
347 345 3.4694469519536142e-18
347 346 4.7704895589362195e-18
347 347 0.11196581196581193
348 109 -0.002003205128205128
348 110 -0.0033386752136752096
348 111 -0.0068376068376068315
348 112 1.0842021724855044e-18
348 113 -0.013354700854700847
348 114 -0.026388888888888882
348 115 0.0020032051282051276
348 116 -0.0033386752136752127
348 117 -0.0068376068376068298
348 148 -0.0080128205128205121
348 149 0
348 150 -0.024679487179487161
348 151 2.6020852139652106e-18
348 152 -1.5178830414797062e-18
348 153 -0.094871794871794882
348 154 0.0080128205128205086
348 155 4.4452289071905682e-18
348 156 -0.024679487179487158
348 187 -0.0020032051282051272
348 188 0.0033386752136752096
348 189 -0.0068376068376068307
348 190 1.3552527156068805e-18
348 191 0.013354700854700852
348 192 -0.026388888888888871
348 193 0.0020032051282051263
348 194 0.0033386752136752135
348 195 -0.0068376068376068289
348 304 1.0842021724855044e-19
348 305 -1.4094628242311558e-18
348 306 0.010042735042735031
348 307 3.903127820947816e-18
348 308 1.214306433183765e-17
348 309 0.044017094017094027
348 310 -3.6862873864507151e-18
348 311 9.1072982488782372e-18
348 312 0.010042735042735056
348 343 -1.1926223897340549e-18
348 344 -1.3010426069826053e-18
348 345 0.050854700854700785
348 346 1.214306433183765e-17
348 347 -2.2551405187698492e-17
348 348 0.21880341880341878
349 112 -0.0027866809116809149
349 113 -0.0010016025641025636
349 114 -0.0020032051282051289
349 115 -0.0038906695156695173
349 116 -0.00020032051282051243
349 117 -0.00040064102564102438
349 151 -0.0084757834757834896
349 152 -8.6736173798840355e-19
349 153 -0.0080128205128205156
349 154 -0.010220797720797734
349 155 1.0842021724855044e-18
349 156 -0.0016025641025640999
349 190 -0.0027866809116809132
349 191 0.0010016025641025634
349 192 -0.0020032051282051272
349 193 -0.0038906695156695182
349 194 0.00020032051282051298
349 195 -0.00040064102564102406
349 307 -0.00046296296296296022
349 308 -0.0040064102564102561
349 309 -2.2768245622195593e-18
349 310 0.0058048433048433091
349 311 -0.00080128205128204995
349 312 3.4694469519536142e-18
349 346 0.0088319088319088503
349 347 -3.6862873864507151e-18
349 348 -1.0408340855860843e-17
349 349 0.044586894586894604
350 112 -0.0010016025641025636
350 113 -0.0034989316239316284
350 114 -0.0033386752136752179
350 115 0.00020032051282051306
350 116 -0.0065170940170940174
350 117 -0.0066773504273504314
350 151 -9.7578195523695399e-19
350 152 -0.004647435897435913
350 153 -4.4452289071905682e-18
350 154 1.0842021724855044e-18
350 155 -0.0073717948717948838
350 156 -1.0842021724855044e-18
350 190 0.0010016025641025634
350 191 -0.0034989316239316262
350 192 0.0033386752136752157
350 193 -0.00020032051282051249
350 194 -0.00651709401709402
350 195 0.0066773504273504305
350 307 -0.0040064102564102561
350 308 -0.0033119658119658149
350 309 -4.6620693416876691e-18
350 310 0.00080128205128205234
350 311 -0.004700854700854698
350 312 6.2883726004159257e-18
350 346 -3.8489177123235407e-18
350 347 0.02414529914529916
350 348 -3.4694469519536142e-18
350 349 4.3368086899420177e-18
350 350 0.055982905982906013
351 112 -0.0020032051282051289
351 113 -0.0033386752136752179
351 114 -0.0068376068376068515
351 115 0.00040064102564102677
351 116 -0.0066773504273504305
351 117 -0.01319444444444445
351 151 -0.0080128205128205156
351 152 -4.4452289071905682e-18
351 153 -0.024679487179487234
351 154 0.0016025641025641049
351 155 1.7347234759768071e-18
351 156 -0.047435897435897482
351 190 -0.0020032051282051276
351 191 0.0033386752136752153
351 192 -0.0068376068376068471
351 193 0.00040064102564102671
351 194 0.0066773504273504305
351 195 -0.013194444444444448
351 307 -2.3852447794681098e-18
351 308 -4.87890977618477e-18
351 309 0.010042735042735052
351 310 2.6020852139652106e-18
351 311 2.6020852139652106e-18
351 312 0.022008547008547028
351 346 -9.7578195523695399e-18
351 347 -3.903127820947816e-18
351 348 0.050854700854700882
351 349 7.8062556418956319e-18
351 350 -5.2041704279304213e-18
351 351 0.10940170940170948
352 118 -0.0038906695156695125
352 119 0.00020032051282051268
352 120 0.00040064102564102498
352 121 -0.0027866809116809093
352 122 0.0010016025641025636
352 123 0.0020032051282051263
352 157 -0.0051103988603988576
352 158 -0.0010016025641025636
352 159 0.0008012820512820505
352 160 -0.0042378917378917344
352 161 -0.00020032051282051273
352 162 0.0040064102564102543
352 313 0.0058048433048432969
352 314 0.00080128205128205082
352 315 -4.3368086899420177e-19
352 316 -0.00046296296296296439
352 317 0.0040064102564102561
352 318 -2.7105054312137611e-19
352 352 0.022293447293447285
353 118 -0.00020032051282051268
353 119 -0.0065170940170940139
353 120 -0.0066773504273504244
353 121 0.0010016025641025634
353 122 -0.0034989316239316215
353 123 -0.0033386752136752122
353 157 -0.0010016025641025636
353 158 -0.0036858974358974323
353 159 -0.0013354700854700848
353 160 0.00020032051282051271
353 161 -0.0023237179487179465
353 162 -0.00066773504273504242
353 313 -0.00080128205128205147
353 314 -0.0047008547008547084
353 315 -4.3368086899420177e-19
353 316 0.0040064102564102552
353 317 -0.0033119658119658141
353 318 -2.1684043449710089e-19
353 352 -0.0040064102564102561
353 353 0.027991452991452986
354 118 -0.00040064102564102584
354 119 -0.0066773504273504244
354 120 -0.013194444444444436
354 121 0.0020032051282051267
354 122 -0.0033386752136752122
354 123 -0.0068376068376068315
354 157 -0.00080128205128205147
354 158 0.0013354700854700859
354 159 -0.023717948717948703
354 160 0.0040064102564102543
354 161 0.00066773504273504275
354 162 -0.012339743589743581
354 313 -4.3368086899420177e-19
354 314 4.3368086899420177e-19
354 315 0.022008547008546986
354 316 -5.4210108624275222e-19
354 317 0
354 318 0.010042735042735033
354 352 1.7347234759768071e-18
354 353 -8.6736173798840355e-19
354 354 0.054700854700854673
355 118 -0.0027866809116809093
355 119 -0.0010016025641025636
355 120 -0.0020032051282051267
355 121 -0.0077813390313390277
355 122 -2.7105054312137611e-20
355 123 5.4210108624275222e-20
355 124 -0.0027866809116809106
355 125 0.0010016025641025638
355 126 0.0020032051282051267
355 157 -0.0042378917378917344
355 158 0.00020032051282051284
355 159 -0.0040064102564102535
355 160 -0.010220797720797717
355 161 0
355 162 -2.1684043449710089e-19
355 163 -0.0042378917378917361
355 164 -0.00020032051282051279
355 165 0.0040064102564102543
355 313 -0.00046296296296296461
355 314 -0.0040064102564102552
355 315 5.4210108624275222e-20
355 316 0.011609686609686597
355 317 -1.0842021724855044e-19
355 318 -1.7347234759768071e-18
355 319 -0.0004629629629629645
355 320 0.0040064102564102552
355 321 2.7105054312137611e-19
355 352 0.0044159544159544121
355 353 0.00080128205128205104
355 354 -3.2526065174565133e-19
355 355 0.044586894586894563
356 118 -0.0010016025641025636
356 119 -0.0034989316239316219
356 120 -0.0033386752136752122
356 121 -2.7105054312137611e-20
356 122 -0.01303418803418803
356 123 -0.013354700854700851
356 124 0.0010016025641025636
356 125 -0.0034989316239316228
356 126 -0.0033386752136752127
356 157 -0.00020032051282051268
356 158 -0.0023237179487179461
356 159 -0.00066773504273504231
356 160 2.1684043449710089e-19
356 161 -0.0073717948717948673
356 162 -0.0026709401709401701
356 163 0.00020032051282051271
356 164 -0.0023237179487179478
356 165 -0.00066773504273504242
356 313 -0.0040064102564102552
356 314 -0.0033119658119658145
356 315 -3.2526065174565133e-19
356 316 -3.7947076036992655e-19
356 317 -0.0094017094017094169
356 318 4.3368086899420177e-19
356 319 0.0040064102564102552
356 320 -0.0033119658119658141
356 321 -9.7578195523695399e-19
356 352 -0.00080128205128205104
356 353 0.012072649572649568
356 354 -8.6736173798840355e-19
356 355 8.6736173798840355e-19
356 356 0.055982905982905964
357 118 -0.0020032051282051267
357 119 -0.0033386752136752122
357 120 -0.0068376068376068315
357 121 0
357 122 -0.013354700854700852
357 123 -0.026388888888888875
357 124 0.0020032051282051272
357 125 -0.0033386752136752122
357 126 -0.0068376068376068341
357 157 -0.0040064102564102543
357 158 0.00066773504273504275
357 159 -0.012339743589743579
357 160 -2.1684043449710089e-19
357 161 0.002670940170940171
357 162 -0.047435897435897413
357 163 0.0040064102564102535
357 164 0.00066773504273504296
357 165 -0.012339743589743586
357 313 -1.6263032587282567e-19
357 314 2.1684043449710089e-19
357 315 0.010042735042735035
357 316 -2.1684043449710089e-18
357 317 1.3010426069826053e-18
357 318 0.044017094017093979
357 319 2.7105054312137611e-19
357 320 -1.0842021724855044e-18
357 321 0.010042735042735033
357 352 7.589415207398531e-19
357 353 -1.7347234759768071e-18
357 354 0.02542735042735041
357 355 -8.6736173798840355e-19
357 356 -8.6736173798840355e-19
357 357 0.10940170940170937
358 121 -0.0027866809116809093
358 122 -0.0010016025641025638
358 123 -0.0020032051282051267
358 124 -0.0077813390313390286
358 125 2.7105054312137611e-20
358 126 5.4210108624275222e-20
358 127 -0.0027866809116809102
358 128 0.0010016025641025636
358 129 0.0020032051282051267
358 160 -0.0042378917378917335
358 161 0.00020032051282051284
358 162 -0.0040064102564102535
358 163 -0.010220797720797719
358 164 2.1684043449710089e-19
358 165 0
358 166 -0.0042378917378917353
358 167 -0.00020032051282051284
358 168 0.0040064102564102543
358 316 -0.00046296296296296482
358 317 -0.0040064102564102552
358 318 6.5052130349130266e-19
358 319 0.011609686609686599
358 320 -1.6263032587282567e-19
358 321 -8.6736173798840355e-19
358 322 -0.00046296296296296336
358 323 0.0040064102564102552
358 324 -5.9631119486702744e-19
358 355 0.004415954415954413
358 356 0.00080128205128205104
358 357 6.5052130349130266e-19
358 358 0.04458689458689457
359 121 -0.0010016025641025638
359 122 -0.0034989316239316215
359 123 -0.0033386752136752122
359 124 2.7105054312137611e-20
359 125 -0.01303418803418803
359 126 -0.013354700854700851
359 127 0.0010016025641025636
359 128 -0.0034989316239316215
359 129 -0.0033386752136752122
359 160 -0.00020032051282051265
359 161 -0.0023237179487179461
359 162 -0.0006677350427350421
359 163 2.1684043449710089e-19
359 164 -0.0073717948717948699
359 165 -0.0026709401709401706
359 166 0.00020032051282051262
359 167 -0.002323717948717947
359 168 -0.00066773504273504188
359 316 -0.0040064102564102561
359 317 -0.0033119658119658141
359 318 1.951563910473908e-18
359 319 -2.7105054312137611e-19
359 320 -0.0094017094017094134
359 321 8.6736173798840355e-19
359 322 0.0040064102564102543
359 323 -0.0033119658119658123
359 324 0
359 355 -0.00080128205128205093
359 356 0.012072649572649568
359 357 4.3368086899420177e-19
359 358 8.6736173798840355e-19
359 359 0.055982905982905971
360 121 -0.0020032051282051267
360 122 -0.0033386752136752122
360 123 -0.0068376068376068307
360 124 -5.4210108624275222e-20
360 125 -0.013354700854700852
360 126 -0.026388888888888878
360 127 0.0020032051282051267
360 128 -0.0033386752136752122
360 129 -0.0068376068376068333
360 160 -0.0040064102564102543
360 161 0.00066773504273504296
360 162 -0.012339743589743579
360 163 -5.4210108624275222e-19
360 164 0.0026709401709401701
360 165 -0.04743589743589742
360 166 0.0040064102564102543
360 167 0.00066773504273504362
360 168 -0.012339743589743584
360 316 2.7105054312137611e-19
360 317 1.951563910473908e-18
360 318 0.010042735042735031
360 319 -1.7347234759768071e-18
360 320 2.6020852139652106e-18
360 321 0.044017094017093986
360 322 -2.1684043449710089e-19
360 323 0
360 324 0.010042735042735035
360 355 1.3010426069826053e-18
360 356 4.3368086899420177e-19
360 357 0.025427350427350413
360 358 0
360 359 -5.2041704279304213e-18
360 360 0.10940170940170937
361 124 -0.0027866809116809106
361 125 -0.0010016025641025636
361 126 -0.0020032051282051272
361 127 -0.0077813390313390268
361 128 -5.4210108624275222e-20
361 129 -3.7947076036992655e-19
361 130 -0.0027866809116809089
361 131 0.0010016025641025636
361 132 0.0020032051282051263
361 163 -0.0042378917378917361
361 164 0.00020032051282051271
361 165 -0.0040064102564102543
361 166 -0.010220797720797715
361 167 2.1684043449710089e-19
361 168 -8.6736173798840355e-19
361 169 -0.0042378917378917353
361 170 -0.00020032051282051281
361 171 0.0040064102564102543
361 319 -0.00046296296296296406
361 320 -0.0040064102564102552
361 321 -1.0842021724855044e-19
361 322 0.011609686609686597
361 323 0
361 324 0
361 325 -0.00046296296296296591
361 326 0.0040064102564102561
361 327 -5.4210108624275222e-20
361 358 0.0044159544159544147
361 359 0.00080128205128205082
361 360 -8.6736173798840355e-19
361 361 0.044586894586894577
362 124 -0.0010016025641025636
362 125 -0.0034989316239316228
362 126 -0.0033386752136752131
362 127 -5.4210108624275222e-20
362 128 -0.01303418803418803
362 129 -0.013354700854700849
362 130 0.0010016025641025636
362 131 -0.0034989316239316202
362 132 -0.0033386752136752105
362 163 -0.00020032051282051273
362 164 -0.0023237179487179478
362 165 -0.00066773504273504264
362 166 2.1684043449710089e-19
362 167 -0.0073717948717948664
362 168 -0.0026709401709401701
362 169 0.00020032051282051265
362 170 -0.0023237179487179474
362 171 -0.00066773504273504242
362 319 -0.0040064102564102561
362 320 -0.0033119658119658141
362 321 -1.4094628242311558e-18
362 322 -5.4210108624275222e-20
362 323 -0.0094017094017094151
362 324 -2.1684043449710089e-19
362 325 0.0040064102564102543
362 326 -0.0033119658119658136
362 327 -7.589415207398531e-19
362 358 -0.00080128205128205136
362 359 0.012072649572649571
362 360 -4.3368086899420177e-19
362 361 4.3368086899420177e-19
362 362 0.055982905982905964
363 124 -0.0020032051282051272
363 125 -0.0033386752136752131
363 126 -0.0068376068376068341
363 127 5.4210108624275222e-20
363 128 -0.013354700854700849
363 129 -0.026388888888888871
363 130 0.0020032051282051263
363 131 -0.0033386752136752109
363 132 -0.0068376068376068289
363 163 -0.0040064102564102552
363 164 0.00066773504273504275
363 165 -0.012339743589743586
363 166 -2.1684043449710089e-19
363 167 0.0026709401709401706
363 168 -0.047435897435897406
363 169 0.0040064102564102543
363 170 0.00066773504273504231
363 171 -0.012339743589743582
363 319 -6.5052130349130266e-19
363 320 -9.7578195523695399e-19
363 321 0.010042735042735033
363 322 0
363 323 8.6736173798840355e-19
363 324 0.044017094017093972
363 325 -5.4210108624275222e-20
363 326 -1.1926223897340549e-18
363 327 0.010042735042735028
363 358 -3.2526065174565133e-19
363 359 4.3368086899420177e-19
363 360 0.025427350427350417
363 361 0
363 362 0
363 363 0.10940170940170935
364 127 -0.0027866809116809084
364 128 -0.0010016025641025636
364 129 -0.0020032051282051263
364 130 -0.0077813390313390268
364 131 -8.1315162936412833e-20
364 132 0
364 133 -0.0027866809116809102
364 134 0.0010016025641025634
364 135 0.0020032051282051267
364 166 -0.0042378917378917318
364 167 0.00020032051282051284
364 168 -0.0040064102564102535
364 169 -0.010220797720797717
364 170 4.3368086899420177e-19
364 171 -4.3368086899420177e-19
364 172 -0.0042378917378917344
364 173 -0.00020032051282051276
364 174 0.0040064102564102535
364 322 -0.00046296296296296634
364 323 -0.0040064102564102552
364 324 4.87890977618477e-19
364 325 0.011609686609686596
364 326 -1.0842021724855044e-19
364 327 -4.3368086899420177e-19
364 328 -0.00046296296296296163
364 329 0.0040064102564102543
364 330 -8.6736173798840355e-19
364 361 0.0044159544159544078
364 362 0.00080128205128205104
364 363 1.0842021724855044e-18
364 364 0.04458689458689457
365 127 -0.0010016025641025636
365 128 -0.0034989316239316197
365 129 -0.0033386752136752109
365 130 -2.7105054312137611e-20
365 131 -0.01303418803418803
365 132 -0.013354700854700849
365 133 0.0010016025641025636
365 134 -0.0034989316239316223
365 135 -0.0033386752136752135
365 166 -0.00020032051282051268
365 167 -0.0023237179487179439
365 168 -0.00066773504273504231
365 169 4.3368086899420177e-19
365 170 -0.0073717948717948664
365 171 -0.0026709401709401736
365 172 0.0002003205128205126
365 173 -0.0023237179487179457
365 174 -0.00066773504273504253
365 322 -0.0040064102564102561
365 323 -0.0033119658119658145
365 324 2.1684043449710089e-19
365 325 -2.7105054312137611e-19
365 326 -0.0094017094017094169
365 327 6.5052130349130266e-19
365 328 0.0040064102564102543
365 329 -0.0033119658119658128
365 330 5.4210108624275222e-19
365 361 -0.00080128205128205104
365 362 0.012072649572649564
365 363 1.7347234759768071e-18
365 364 8.6736173798840355e-19
365 365 0.055982905982905971
366 127 -0.0020032051282051267
366 128 -0.0033386752136752105
366 129 -0.0068376068376068272
366 130 1.0842021724855044e-19
366 131 -0.013354700854700849
366 132 -0.026388888888888871
366 133 0.0020032051282051263
366 134 -0.0033386752136752131
366 135 -0.0068376068376068333
366 166 -0.0040064102564102543
366 167 0.00066773504273504199
366 168 -0.01233974358974357
366 169 -2.1684043449710089e-19
366 170 0.0026709401709401667
366 171 -0.047435897435897406
366 172 0.0040064102564102535
366 173 0.00066773504273504329
366 174 -0.012339743589743584
366 322 2.1684043449710089e-19
366 323 3.2526065174565133e-19
366 324 0.010042735042735028
366 325 -4.3368086899420177e-19
366 326 1.5178830414797062e-18
366 327 0.044017094017093979
366 328 -6.5052130349130266e-19
366 329 0
366 330 0.01004273504273504
366 361 1.7347234759768071e-18
366 362 1.3010426069826053e-18
366 363 0.025427350427350399
366 364 0
366 365 -6.0715321659188248e-18
366 366 0.10940170940170937
367 130 -0.0027866809116809115
367 131 -0.0010016025641025636
367 132 -0.0020032051282051267
367 133 -0.0077813390313390294
367 134 -5.4210108624275222e-20
367 135 -2.1684043449710089e-19
367 136 -0.0027866809116809097
367 137 0.0010016025641025638
367 138 0.0020032051282051267
367 169 -0.0042378917378917361
367 170 0.00020032051282051271
367 171 -0.0040064102564102543
367 172 -0.01022079772079772
367 173 0
367 174 1.0842021724855044e-19
367 175 -0.0042378917378917327
367 176 -0.00020032051282051257
367 177 0.0040064102564102543
367 325 -0.00046296296296296266
367 326 -0.0040064102564102552
367 327 -5.4210108624275222e-19
367 328 0.011609686609686597
367 329 -2.7105054312137611e-19
367 330 4.3368086899420177e-19
367 331 -0.00046296296296296537
367 332 0.0040064102564102561
367 333 -4.87890977618477e-19
367 364 0.0044159544159544217
367 365 0.00080128205128205093
367 366 -1.3010426069826053e-18
367 367 0.044586894586894577
368 130 -0.0010016025641025636
368 131 -0.0034989316239316236
368 132 -0.0033386752136752144
368 133 -8.1315162936412833e-20
368 134 -0.013034188034188033
368 135 -0.013354700854700852
368 136 0.0010016025641025638
368 137 -0.0034989316239316215
368 138 -0.0033386752136752127
368 169 -0.00020032051282051281
368 170 -0.0023237179487179474
368 171 -0.00066773504273504351
368 172 0
368 173 -0.0073717948717948699
368 174 -0.0026709401709401719
368 175 0.00020032051282051284
368 176 -0.0023237179487179444
368 177 -0.00066773504273504231
368 325 -0.0040064102564102552
368 326 -0.0033119658119658158
368 327 -1.8431436932253575e-18
368 328 -4.87890977618477e-19
368 329 -0.0094017094017094169
368 330 3.0357660829594124e-18
368 331 0.0040064102564102561
368 332 -0.0033119658119658158
368 333 -1.6263032587282567e-18
368 364 -0.00080128205128205125
368 365 0.012072649572649578
368 366 2.1684043449710089e-18
368 367 -8.6736173798840355e-19
368 368 0.055982905982905985
369 130 -0.0020032051282051267
369 131 -0.0033386752136752144
369 132 -0.0068376068376068376
369 133 -5.4210108624275222e-20
369 134 -0.013354700854700852
369 135 -0.026388888888888878
369 136 0.0020032051282051267
369 137 -0.0033386752136752122
369 138 -0.0068376068376068307
369 169 -0.0040064102564102543
369 170 0.00066773504273504264
369 171 -0.012339743589743589
369 172 -3.2526065174565133e-19
369 173 0.002670940170940171
369 174 -0.04743589743589742
369 175 0.0040064102564102535
369 176 0.00066773504273504242
369 177 -0.012339743589743572
369 325 -8.1315162936412833e-19
369 326 -2.0599841277224584e-18
369 327 0.010042735042735038
369 328 4.3368086899420177e-19
369 329 3.2526065174565133e-18
369 330 0.044017094017093979
369 331 -3.2526065174565133e-19
369 332 -7.589415207398531e-19
369 333 0.010042735042735031
369 364 -7.589415207398531e-19
369 365 2.6020852139652106e-18
369 366 0.025427350427350427
369 367 4.3368086899420177e-18
369 368 -5.2041704279304213e-18
369 369 0.10940170940170937
370 133 -0.0027866809116809093
370 134 -0.0010016025641025636
370 135 -0.0020032051282051267
370 136 -0.0077813390313390294
370 137 -5.4210108624275222e-20
370 138 -1.6263032587282567e-19
370 139 -0.0027866809116809115
370 140 0.0010016025641025636
370 141 0.0020032051282051272
370 172 -0.0042378917378917379
370 173 0.000200320512820513
370 174 -0.0040064102564102543
370 175 -0.01022079772079772
370 176 2.1684043449710089e-19
370 177 0
370 178 -0.0042378917378917387
370 179 -0.00020032051282051295
370 180 0.0040064102564102543
370 328 -0.00046296296296296439
370 329 -0.0040064102564102543
370 330 -1.0842021724855044e-19
370 331 0.011609686609686597
370 332 -3.7947076036992655e-19
370 333 -1.7347234759768071e-18
370 334 -0.00046296296296296092
370 335 0.0040064102564102552
370 336 7.0473141211557788e-19
370 367 0.004415954415954413
370 368 0.00080128205128205212
370 369 -2.7105054312137611e-18
370 370 0.044586894586894577
371 133 -0.0010016025641025636
371 134 -0.003498931623931621
371 135 -0.0033386752136752114
371 136 -1.0842021724855044e-19
371 137 -0.013034188034188031
371 138 -0.013354700854700852
371 139 0.0010016025641025636
371 140 -0.0034989316239316236
371 141 -0.003338675213675214
371 172 -0.00020032051282051252
371 173 -0.0023237179487179491
371 174 -0.00066773504273504101
371 175 2.1684043449710089e-19
371 176 -0.0073717948717948708
371 177 -0.0026709401709401701
371 178 0.00020032051282051254
371 179 -0.00232371794871795
371 180 -0.00066773504273504101
371 328 -0.0040064102564102543
371 329 -0.0033119658119658115
371 330 -1.1926223897340549e-18
371 331 -3.7947076036992655e-19
371 332 -0.0094017094017094151
371 333 -6.5052130349130266e-19
371 334 0.0040064102564102543
371 335 -0.003311965811965811
371 336 -1.5178830414797062e-18
371 367 -0.00080128205128205028
371 368 0.012072649572649568
371 369 8.6736173798840355e-19
371 370 4.3368086899420177e-19
371 371 0.055982905982905978
372 133 -0.0020032051282051267
372 134 -0.0033386752136752118
372 135 -0.0068376068376068315
372 136 5.4210108624275222e-20
372 137 -0.013354700854700854
372 138 -0.026388888888888878
372 139 0.0020032051282051272
372 140 -0.0033386752136752144
372 141 -0.0068376068376068385
372 172 -0.0040064102564102552
372 173 0.00066773504273504416
372 174 -0.012339743589743589
372 175 4.3368086899420177e-19
372 176 0.0026709401709401727
372 177 -0.047435897435897427
372 178 0.0040064102564102543
372 179 0.0006677350427350447
372 180 -0.012339743589743596
372 328 -2.1684043449710089e-19
372 329 -2.0599841277224584e-18
372 330 0.010042735042735031
372 331 -2.1684043449710089e-18
372 332 2.1684043449710089e-19
372 333 0.044017094017093986
372 334 7.0473141211557788e-19
372 335 -1.951563910473908e-18
372 336 0.010042735042735042
372 367 -1.5178830414797062e-18
372 368 1.7347234759768071e-18
372 369 0.02542735042735041
372 370 8.6736173798840355e-19
372 371 -2.6020852139652106e-18
372 372 0.1094017094017094
373 136 -0.0027866809116809093
373 137 -0.0010016025641025638
373 138 -0.0020032051282051263
373 139 -0.0077813390313390251
373 140 -1.3552527156068805e-19
373 141 -2.1684043449710089e-19
373 142 -0.0027866809116809071
373 143 0.0010016025641025638
373 144 0.0020032051282051263
373 175 -0.0042378917378917344
373 176 0.00020032051282051262
373 177 -0.0040064102564102543
373 178 -0.010220797720797712
373 179 0
373 180 3.2526065174565133e-19
373 181 -0.0042378917378917275
373 182 -0.00020032051282051227
373 183 0.0040064102564102526
373 331 -0.0004629629629629632
373 332 -0.0040064102564102561
373 333 9.7578195523695399e-19
373 334 0.011609686609686594
373 335 -1.2468324983583301e-18
373 336 -4.3368086899420177e-19
373 337 -0.00046296296296297122
373 338 0.0040064102564102561
373 339 -1.1384122811097797e-18
373 370 0.0044159544159544208
373 371 0.00080128205128205028
373 372 1.4094628242311558e-18
373 373 0.044586894586894563
374 136 -0.0010016025641025638
374 137 -0.0034989316239316232
374 138 -0.003338675213675214
374 139 -1.3552527156068805e-19
374 140 -0.013034188034188024
374 141 -0.013354700854700849
374 142 0.0010016025641025638
374 143 -0.0034989316239316189
374 144 -0.0033386752136752088
374 175 -0.00020032051282051289
374 176 -0.0023237179487179465
374 177 -0.00066773504273504318
374 178 0
374 179 -0.0073717948717948612
374 180 -0.0026709401709401727
374 181 0.00020032051282051325
374 182 -0.0023237179487179383
374 183 -0.00066773504273504394
374 331 -0.0040064102564102561
374 332 -0.0033119658119658175
374 333 3.5778671692021646e-18
374 334 -9.7578195523695399e-19
374 335 -0.0094017094017094117
374 336 4.3368086899420177e-19
374 337 0.0040064102564102561
374 338 -0.0033119658119658193
374 339 3.7947076036992655e-18
374 370 -0.0008012820512820519
374 371 0.012072649572649575
374 372 1.7347234759768071e-18
374 373 -4.3368086899420177e-19
374 374 0.055982905982905957
375 136 -0.0020032051282051267
375 137 -0.0033386752136752148
375 138 -0.0068376068376068324
375 139 1.6263032587282567e-19
375 140 -0.013354700854700849
375 141 -0.026388888888888865
375 142 0.0020032051282051263
375 143 -0.0033386752136752079
375 144 -0.0068376068376068229
375 175 -0.0040064102564102543
375 176 0.00066773504273504253
375 177 -0.012339743589743582
375 178 1.5178830414797062e-18
375 179 0.0026709401709401675
375 180 -0.047435897435897392
375 181 0.0040064102564102526
375 182 0.00066773504273503928
375 183 -0.012339743589743549
375 331 7.0473141211557788e-19
375 332 2.7105054312137611e-18
375 333 0.010042735042735038
375 334 -4.3368086899420177e-19
375 335 4.5536491244391186e-18
375 336 0.044017094017093965
375 337 -9.7578195523695399e-19
375 338 4.0115480381963664e-18
375 339 0.010042735042735014
375 370 2.0599841277224584e-18
375 371 1.3010426069826053e-18
375 372 0.025427350427350427
375 373 4.3368086899420177e-18
375 374 -1.0408340855860843e-17
375 375 0.10940170940170933
376 139 -0.0027866809116809076
376 140 -0.0010016025641025634
376 141 -0.0020032051282051267
376 142 -0.0077813390313390234
376 143 -5.1499603193061461e-19
376 144 -2.1684043449710089e-19
376 145 -0.0027866809116809128
376 146 0.0010016025641025638
376 147 0.0020032051282051272
376 178 -0.004237891737891737
376 179 0.00020032051282051322
376 180 -0.0040064102564102543
376 181 -0.01022079772079771
376 182 -6.5052130349130266e-19
376 183 -1.5178830414797062e-18
376 184 -0.0042378917378917457
376 185 -0.00020032051282051238
376 186 0.0040064102564102569
376 334 -0.00046296296296296764
376 335 -0.0040064102564102543
376 336 -6.5052130349130266e-19
376 337 0.011609686609686594
376 338 -1.7347234759768071e-18
376 339 -2.1684043449710089e-18
376 340 -0.00046296296296296477
376 341 0.0040064102564102561
376 342 2.0057740190981832e-18
376 373 0.0044159544159543974
376 374 0.00080128205128205299
376 375 -4.4452289071905682e-18
376 376 0.044586894586894556
377 139 -0.0010016025641025636
377 140 -0.0034989316239316167
377 141 -0.0033386752136752066
377 142 -4.3368086899420177e-19
377 143 -0.013034188034188024
377 144 -0.013354700854700845
377 145 0.0010016025641025638
377 146 -0.0034989316239316262
377 147 -0.0033386752136752161
377 178 -0.00020032051282051222
377 179 -0.0023237179487179478
377 180 -0.00066773504273503971
377 181 -6.5052130349130266e-19
377 182 -0.007371794871794863
377 183 -0.0026709401709401662
377 184 0.00020032051282051308
377 185 -0.0023237179487179578
377 186 -0.00066773504273504502
377 334 -0.0040064102564102543
377 335 -0.0033119658119658058
377 336 7.589415207398531e-19
377 337 -2.1141942363467336e-18
377 338 -0.0094017094017094117
377 339 -4.3368086899420177e-18
377 340 0.0040064102564102561
377 341 -0.0033119658119658201
377 342 -9.540979117872439e-18
377 373 -0.00080128205128204909
377 374 0.012072649572649554
377 375 -8.6736173798840355e-19
377 376 -3.4694469519536142e-18
377 377 0.055982905982905951
378 139 -0.0020032051282051267
378 140 -0.0033386752136752075
378 141 -0.0068376068376068272
378 142 -1.6263032587282567e-19
378 143 -0.013354700854700847
378 144 -0.026388888888888858
378 145 0.0020032051282051272
378 146 -0.0033386752136752166
378 147 -0.0068376068376068419
378 178 -0.0040064102564102543
378 179 0.00066773504273504448
378 180 -0.012339743589743584
378 181 -1.7347234759768071e-18
378 182 0.0026709401709401719
378 183 -0.047435897435897392
378 184 0.0040064102564102569
378 185 0.00066773504273504134
378 186 -0.01233974358974362
378 334 -9.2157184661267877e-19
378 335 -9.7578195523695399e-19
378 336 0.010042735042735021
378 337 -1.7347234759768071e-18
378 338 -8.4567769453869346e-18
378 339 0.044017094017093965
378 340 2.2226144535952841e-18
378 341 -1.0083080204115191e-17
378 342 0.010042735042735035
378 373 -4.4452289071905682e-18
378 374 8.6736173798840355e-19
378 375 0.025427350427350375
378 376 -5.2041704279304213e-18
378 377 1.474514954580286e-17
378 378 0.1094017094017093
379 142 -0.0027866809116809076
379 143 -0.0010016025641025634
379 144 -0.0020032051282051263
379 145 -0.007781339031339032
379 146 -1.3552527156068805e-19
379 147 -3.7947076036992655e-19
379 148 -0.0027866809116809084
379 149 0.0010016025641025634
379 150 0.0020032051282051263
379 181 -0.0042378917378917266
379 182 0.00020032051282051314
379 183 -0.0040064102564102517
379 184 -0.010220797720797727
379 185 2.1684043449710089e-19
379 186 -4.3368086899420177e-19
379 187 -0.0042378917378917275
379 188 -0.00020032051282051322
379 189 0.0040064102564102517
379 337 -0.00046296296296296211
379 338 -0.0040064102564102552
379 339 2.1684043449710089e-18
379 340 0.011609686609686599
379 341 -2.1684043449710089e-19
379 342 -4.3368086899420177e-19
379 343 -0.00046296296296295951
379 344 0.0040064102564102543
379 345 -1.951563910473908e-18
379 376 0.0044159544159544173
379 377 0.00080128205128205234
379 378 9.6493993351209895e-18
379 379 0.04458689458689459
380 142 -0.0010016025641025634
380 143 -0.0034989316239316193
380 144 -0.0033386752136752122
380 145 0
380 146 -0.013034188034188036
380 147 -0.013354700854700854
380 148 0.0010016025641025634
380 149 -0.0034989316239316202
380 150 -0.0033386752136752118
380 181 -0.0002003205128205123
380 182 -0.0023237179487179379
380 183 -0.00066773504273504004
380 184 0
380 185 -0.0073717948717948751
380 186 -0.0026709401709401758
380 187 0.00020032051282051233
380 188 -0.0023237179487179383
380 189 -0.00066773504273504101
380 337 -0.0040064102564102543
380 338 -0.0033119658119658097
380 339 5.4210108624275222e-19
380 340 -5.4210108624275222e-20
380 341 -0.0094017094017094221
380 342 8.0230960763927328e-18
380 343 0.0040064102564102543
380 344 -0.0033119658119658097
380 345 5.6378512969246231e-18
380 376 -0.00080128205128204974
380 377 0.012072649572649571
380 378 2.6020852139652106e-18
380 379 4.3368086899420177e-19
380 380 0.055982905982905992
381 142 -0.0020032051282051263
381 143 -0.0033386752136752114
381 144 -0.0068376068376068263
381 145 5.4210108624275222e-20
381 146 -0.013354700854700854
381 147 -0.026388888888888885
381 148 0.0020032051282051263
381 149 -0.0033386752136752114
381 150 -0.0068376068376068298
381 181 -0.0040064102564102517
381 182 0.00066773504273504383
381 183 -0.012339743589743551
381 184 -1.0842021724855044e-19
381 185 0.0026709401709401667
381 186 -0.047435897435897448
381 187 0.0040064102564102509
381 188 0.00066773504273504416
381 189 -0.01233974358974356
381 337 2.0599841277224584e-18
381 338 3.2526065174565133e-18
381 339 0.010042735042735038
381 340 -4.3368086899420177e-19
381 341 1.214306433183765e-17
381 342 0.044017094017093999
381 343 -2.1141942363467336e-18
381 344 8.2399365108898337e-18
381 345 0.010042735042735043
381 376 9.9746599868666408e-18
381 377 -1.7347234759768071e-18
381 378 0.02542735042735042
381 379 8.6736173798840355e-19
381 380 -1.8214596497756474e-17
381 381 0.1094017094017094
382 145 -0.0027866809116809128
382 146 -0.0010016025641025638
382 147 -0.0020032051282051272
382 148 -0.007781339031339026
382 149 1.0842021724855044e-19
382 150 5.4210108624275222e-19
382 151 -0.002786680911680908
382 152 0.0010016025641025636
382 153 0.0020032051282051267
382 184 -0.0042378917378917457
382 185 0.00020032051282051235
382 186 -0.0040064102564102561
382 187 -0.010220797720797717
382 188 6.5052130349130266e-19
382 189 9.7578195523695399e-19
382 190 -0.0042378917378917396
382 191 -0.00020032051282051273
382 192 0.0040064102564102561
382 340 -0.00046296296296296363
382 341 -0.0040064102564102561
382 342 -1.8973538018496328e-18
382 343 0.011609686609686597
382 344 9.7578195523695399e-19
382 345 1.7347234759768071e-18
382 346 -0.00046296296296296688
382 347 0.0040064102564102552
382 348 -6.5052130349130266e-19
382 379 0.0044159544159544251
382 380 0.0008012820512820493
382 381 -9.8662397696180903e-18
382 382 0.044586894586894577
383 145 -0.0010016025641025638
383 146 -0.0034989316239316271
383 147 -0.0033386752136752153
383 148 1.8973538018496328e-19
383 149 -0.013034188034188026
383 150 -0.013354700854700852
383 151 0.0010016025641025636
383 152 -0.0034989316239316189
383 153 -0.0033386752136752092
383 184 -0.00020032051282051314
383 185 -0.0023237179487179578
383 186 -0.00066773504273504633
383 187 4.3368086899420177e-19
383 188 -0.0073717948717948682
383 189 -0.0026709401709401675
383 190 0.00020032051282051276
383 191 -0.0023237179487179522
383 192 -0.00066773504273504123
383 340 -0.0040064102564102561
383 341 -0.0033119658119658219
383 342 -8.6736173798840355e-19
383 343 7.589415207398531e-19
383 344 -0.0094017094017094134
383 345 -1.0625181290357943e-17
383 346 0.0040064102564102552
383 347 -0.0033119658119658106
383 348 1.1926223897340549e-18
383 379 -0.00080128205128205277
383 380 0.01207264957264958
383 381 -6.0715321659188248e-18
383 382 1.7347234759768071e-18
383 383 0.055982905982905978
384 145 -0.0020032051282051272
384 146 -0.0033386752136752166
384 147 -0.0068376068376068419
384 148 5.4210108624275222e-19
384 149 -0.013354700854700852
384 150 -0.026388888888888871
384 151 0.0020032051282051272
384 152 -0.0033386752136752101
384 153 -0.0068376068376068263
384 184 -0.0040064102564102569
384 185 0.00066773504273504058
384 186 -0.012339743589743627
384 187 8.6736173798840355e-19
384 188 0.0026709401709401745
384 189 -0.04743589743589742
384 190 0.0040064102564102561
384 191 0.00066773504273504329
384 192 -0.012339743589743598
384 340 -2.2226144535952841e-18
384 341 -2.3852447794681098e-18
384 342 0.010042735042735038
384 343 2.1684043449710089e-18
384 344 -1.0408340855860843e-17
384 345 0.044017094017093986
384 346 -7.589415207398531e-19
384 347 -2.1684043449710089e-18
384 348 0.010042735042735024
384 379 -9.540979117872439e-18
384 380 -2.6020852139652106e-18
384 381 0.025427350427350434
384 382 4.3368086899420177e-18
384 383 1.3010426069826053e-17
384 384 0.10940170940170936
385 148 -0.0027866809116809089
385 149 -0.0010016025641025636
385 150 -0.0020032051282051272
385 151 -0.0077813390313390286
385 152 1.3552527156068805e-19
385 153 6.5052130349130266e-19
385 154 -0.002786680911680908
385 155 0.0010016025641025634
385 156 0.0020032051282051263
385 187 -0.0042378917378917283
385 188 0.00020032051282051276
385 189 -0.0040064102564102535
385 190 -0.01022079772079772
385 191 6.5052130349130266e-19
385 192 -7.589415207398531e-19
385 193 -0.0042378917378917309
385 194 -0.00020032051282051322
385 195 0.0040064102564102526
385 343 -0.00046296296296296732
385 344 -0.0040064102564102561
385 345 -6.5052130349130266e-19
385 346 0.011609686609686599
385 347 6.5052130349130266e-19
385 348 2.6020852139652106e-18
385 349 -0.00046296296296295875
385 350 0.0040064102564102543
385 351 -3.2526065174565133e-18
385 382 0.0044159544159544026
385 383 0.00080128205128205115
385 384 6.1799523831673753e-18
385 385 0.044586894586894577
386 148 -0.0010016025641025638
386 149 -0.0034989316239316202
386 150 -0.0033386752136752105
386 151 2.7105054312137611e-19
386 152 -0.01303418803418803
386 153 -0.013354700854700849
386 154 0.0010016025641025634
386 155 -0.0034989316239316197
386 156 -0.0033386752136752122
386 187 -0.00020032051282051265
386 188 -0.00232371794871794
386 189 -0.0006677350427350408
386 190 6.5052130349130266e-19
386 191 -0.0073717948717948708
386 192 -0.0026709401709401727
386 193 0.0002003205128205123
386 194 -0.0023237179487179435
386 195 -0.00066773504273504025
386 343 -0.0040064102564102561
386 344 -0.0033119658119658115
386 345 -3.7947076036992655e-18
386 346 3.2526065174565133e-19
386 347 -0.0094017094017094117
386 348 5.8546917314217239e-18
386 349 0.0040064102564102543
386 350 -0.0033119658119658093
386 351 8.3483567281383841e-18
386 382 -0.00080128205128205104
386 383 0.012072649572649558
386 384 3.4694469519536142e-18
386 385 1.3010426069826053e-18
386 386 0.055982905982905971
387 148 -0.0020032051282051272
387 149 -0.0033386752136752101
387 150 -0.0068376068376068315
387 151 9.7578195523695399e-19
387 152 -0.013354700854700849
387 153 -0.026388888888888875
387 154 0.0020032051282051259
387 155 -0.0033386752136752122
387 156 -0.0068376068376068281
387 187 -0.0040064102564102535
387 188 0.00066773504273504264
387 189 -0.012339743589743555
387 190 -6.5052130349130266e-19
387 191 0.0026709401709401675
387 192 -0.04743589743589742
387 193 0.0040064102564102526
387 194 0.00066773504273504459
387 195 -0.012339743589743574
387 343 -8.1315162936412833e-19
387 344 -2.0599841277224584e-18
387 345 0.010042735042735026
387 346 2.6020852139652106e-18
387 347 8.6736173798840355e-18
387 348 0.044017094017093993
387 349 -2.8731357570865868e-18
387 350 8.4567769453869346e-18
387 351 0.010042735042735045
387 382 6.5052130349130266e-18
387 383 2.1684043449710089e-18
387 384 0.025427350427350393
387 385 8.6736173798840355e-19
387 386 -1.7347234759768071e-17
387 387 0.10940170940170936
388 151 -0.0027866809116809145
388 152 -0.0010016025641025638
388 153 -0.0020032051282051276
388 154 -0.0038906695156695182
388 155 -0.00020032051282051249
388 156 -0.00040064102564102449
388 190 -0.0042378917378917422
388 191 0.00020032051282051233
388 192 -0.0040064102564102552
388 193 -0.0051103988603988636
388 194 0.0010016025641025642
388 195 -0.00080128205128204974
388 346 -0.00046296296296296271
388 347 -0.0040064102564102561
388 348 -2.7647155398380363e-18
388 349 0.0058048433048432995
388 350 -0.00080128205128205028
388 351 3.4694469519536142e-18
388 385 0.0044159544159544251
388 386 0.0008012820512820493
388 387 -5.7462715141731735e-18
388 388 0.022293447293447299
389 151 -0.0010016025641025638
389 152 -0.0034989316239316288
389 153 -0.0033386752136752179
389 154 0.00020032051282051298
389 155 -0.00651709401709402
389 156 -0.0066773504273504323
389 190 -0.00020032051282051317
389 191 -0.0023237179487179543
389 192 -0.00066773504273504589
389 193 0.0010016025641025642
389 194 -0.0036858974358974345
389 195 -0.0013354700854700851
389 346 -0.0040064102564102561
389 347 -0.0033119658119658219
389 348 -5.3125906451789717e-18
389 349 0.0008012820512820519
389 350 -0.0047008547008547119
389 351 2.8189256484623115e-18
389 385 -0.00080128205128205277
389 386 0.012072649572649578
389 387 -2.1684043449710089e-18
389 388 0.0040064102564102578
389 389 0.027991452991453017
390 151 -0.0020032051282051276
390 152 -0.0033386752136752179
390 153 -0.006837606837606848
390 154 0.00040064102564102644
390 155 -0.0066773504273504331
390 156 -0.013194444444444448
390 190 -0.0040064102564102561
390 191 0.0006677350427350409
390 192 -0.012339743589743612
390 193 0.00080128205128205245
390 194 0.001335470085470089
390 195 -0.023717948717948727
390 346 -3.1441863002079629e-18
390 347 -5.7462715141731735e-18
390 348 0.010042735042735042
390 349 3.4694469519536142e-18
390 350 -2.1684043449710089e-19
390 351 0.022008547008547007
390 385 -5.3125906451789717e-18
390 386 8.6736173798840355e-19
390 387 0.025427350427350434
390 388 3.4694469519536142e-18
390 389 6.9388939039072284e-18
390 390 0.054700854700854729
391 196 -0.0051103988603988576
391 197 0.0010016025641025636
391 198 0.00080128205128205147
391 199 -0.004237891737891737
391 200 0.00020032051282051262
391 201 0.0040064102564102561
391 235 -0.003890669515669513
391 236 -0.00020032051282051292
391 237 0.00040064102564102574
391 238 -0.0027866809116809102
391 239 -0.0010016025641025638
391 240 0.0020032051282051276
391 391 0.022293447293447285
392 196 0.0010016025641025636
392 197 -0.0036858974358974336
392 198 0.0013354700854700846
392 199 -0.00020032051282051284
392 200 -0.0023237179487179474
392 201 0.00066773504273504253
392 235 0.00020032051282051262
392 236 -0.0065170940170940139
392 237 0.0066773504273504227
392 238 -0.0010016025641025638
392 239 -0.0034989316239316219
392 240 0.0033386752136752114
392 391 0.0040064102564102561
392 392 0.027991452991452982
393 196 -0.00080128205128205093
393 197 -0.0013354700854700844
393 198 -0.023717948717948707
393 199 0.0040064102564102543
393 200 -0.00066773504273504199
393 201 -0.012339743589743581
393 235 -0.0004006410256410253
393 236 0.0066773504273504236
393 237 -0.013194444444444436
393 238 0.0020032051282051272
393 239 0.0033386752136752114
393 240 -0.0068376068376068324
393 391 0
393 392 8.6736173798840355e-19
393 393 0.054700854700854673
394 196 -0.0042378917378917361
394 197 -0.00020032051282051265
394 198 -0.0040064102564102552
394 199 -0.010220797720797717
394 200 -2.1684043449710089e-19
394 201 2.1684043449710089e-19
394 202 -0.0042378917378917379
394 203 0.00020032051282051265
394 204 0.0040064102564102561
394 235 -0.0027866809116809097
394 236 0.0010016025641025636
394 237 -0.0020032051282051276
394 238 -0.0077813390313390277
394 239 -2.439454888092385e-19
394 240 2.7105054312137611e-19
394 241 -0.0027866809116809106
394 242 -0.0010016025641025638
394 243 0.0020032051282051276
394 391 0.0044159544159544078
394 392 -0.00080128205128205125
394 393 -4.3368086899420177e-19
394 394 0.044586894586894577
395 196 0.00020032051282051287
395 197 -0.0023237179487179478
395 198 0.00066773504273504264
395 199 -2.1684043449710089e-19
395 200 -0.0073717948717948699
395 201 0.0026709401709401701
395 202 -0.00020032051282051289
395 203 -0.0023237179487179491
395 204 0.00066773504273504231
395 235 0.0010016025641025636
395 236 -0.0034989316239316215
395 237 0.0033386752136752114
395 238 -2.439454888092385e-19
395 239 -0.01303418803418803
395 240 0.013354700854700849
395 241 -0.0010016025641025638
395 242 -0.0034989316239316228
395 243 0.0033386752136752118
395 391 0.00080128205128205136
395 392 0.012072649572649564
395 393 -4.3368086899420177e-19
395 394 0
395 395 0.055982905982905964
396 196 -0.0040064102564102561
396 197 -0.00066773504273504199
396 198 -0.012339743589743581
396 199 -1.0842021724855044e-19
396 200 -0.0026709401709401693
396 201 -0.04743589743589742
396 202 0.0040064102564102561
396 203 -0.00066773504273504253
396 204 -0.012339743589743586
396 235 -0.0020032051282051272
396 236 0.0033386752136752114
396 237 -0.0068376068376068315
396 238 2.1684043449710089e-19
396 239 0.013354700854700849
396 240 -0.026388888888888878
396 241 0.0020032051282051272
396 242 0.0033386752136752127
396 243 -0.0068376068376068341
396 391 -5.4210108624275222e-19
396 392 -4.3368086899420177e-19
396 393 0.025427350427350406
396 394 0
396 395 -3.4694469519536142e-18
396 396 0.10940170940170935
397 199 -0.0042378917378917353
397 200 -0.00020032051282051268
397 201 -0.0040064102564102552
397 202 -0.010220797720797717
397 203 0
397 204 8.6736173798840355e-19
397 205 -0.0042378917378917361
397 206 0.00020032051282051265
397 207 0.0040064102564102561
397 238 -0.0027866809116809097
397 239 0.0010016025641025638
397 240 -0.0020032051282051272
397 241 -0.0077813390313390286
397 242 -2.7105054312137611e-19
397 243 1.6263032587282567e-19
397 244 -0.0027866809116809102
397 245 -0.001001602564102564
397 246 0.0020032051282051276
397 394 0.0044159544159544087
397 395 -0.00080128205128205125
397 396 1.5178830414797062e-18
397 397 0.044586894586894583
398 199 0.00020032051282051289
398 200 -0.0023237179487179461
398 201 0.00066773504273504242
398 202 -2.1684043449710089e-19
398 203 -0.0073717948717948699
398 204 0.0026709401709401714
398 205 -0.00020032051282051287
398 206 -0.0023237179487179478
398 207 0.00066773504273504264
398 238 0.0010016025641025638
398 239 -0.0034989316239316215
398 240 0.0033386752136752118
398 241 -2.1684043449710089e-19
398 242 -0.01303418803418803
398 243 0.013354700854700852
398 244 -0.0010016025641025638
398 245 -0.0034989316239316215
398 246 0.0033386752136752118
398 394 0.00080128205128205169
398 395 0.012072649572649566
398 396 -1.3010426069826053e-18
398 397 -4.3368086899420177e-19
398 398 0.055982905982905971
399 199 -0.0040064102564102552
399 200 -0.00066773504273504231
399 201 -0.012339743589743577
399 202 4.3368086899420177e-19
399 203 -0.0026709401709401701
399 204 -0.04743589743589742
399 205 0.0040064102564102543
399 206 -0.00066773504273504188
399 207 -0.012339743589743581
399 238 -0.0020032051282051272
399 239 0.0033386752136752118
399 240 -0.0068376068376068307
399 241 1.0842021724855044e-19
399 242 0.013354700854700851
399 243 -0.026388888888888878
399 244 0.0020032051282051272
399 245 0.0033386752136752122
399 246 -0.0068376068376068324
399 394 1.4094628242311558e-18
399 395 -8.6736173798840355e-19
399 396 0.025427350427350406
399 397 -8.6736173798840355e-19
399 398 5.2041704279304213e-18
399 399 0.10940170940170935
400 202 -0.004237891737891737
400 203 -0.00020032051282051276
400 204 -0.0040064102564102561
400 205 -0.010220797720797715
400 206 -2.1684043449710089e-19
400 207 3.2526065174565133e-19
400 208 -0.0042378917378917353
400 209 0.00020032051282051257
400 210 0.0040064102564102552
400 241 -0.0027866809116809106
400 242 0.0010016025641025638
400 243 -0.0020032051282051276
400 244 -0.0077813390313390268
400 245 0
400 246 2.7105054312137611e-19
400 247 -0.0027866809116809102
400 248 -0.0010016025641025636
400 249 0.0020032051282051276
400 397 0.0044159544159544095
400 398 -0.00080128205128205169
400 399 -1.0842021724855044e-19
400 400 0.044586894586894577
401 202 0.00020032051282051276
401 203 -0.0023237179487179487
401 204 0.00066773504273504221
401 205 -4.3368086899420177e-19
401 206 -0.0073717948717948682
401 207 0.0026709401709401701
401 208 -0.00020032051282051289
401 209 -0.002323717948717947
401 210 0.0006677350427350421
401 241 0.0010016025641025636
401 242 -0.0034989316239316219
401 243 0.0033386752136752118
401 244 -5.4210108624275222e-20
401 245 -0.013034188034188028
401 246 0.013354700854700849
401 247 -0.0010016025641025636
401 248 -0.003498931623931621
401 249 0.0033386752136752109
401 397 0.00080128205128205104
401 398 0.012072649572649568
401 399 0
401 400 0
401 401 0.055982905982905957
402 202 -0.0040064102564102552
402 203 -0.00066773504273504242
402 204 -0.012339743589743584
402 205 3.2526065174565133e-19
402 206 -0.0026709401709401693
402 207 -0.047435897435897413
402 208 0.0040064102564102543
402 209 -0.00066773504273504199
402 210 -0.012339743589743575
402 241 -0.0020032051282051272
402 242 0.0033386752136752122
402 243 -0.0068376068376068341
402 244 1.0842021724855044e-19
402 245 0.013354700854700849
402 246 -0.026388888888888871
402 247 0.0020032051282051276
402 248 0.0033386752136752109
402 249 -0.0068376068376068307
402 397 -7.589415207398531e-19
402 398 0
402 399 0.025427350427350406
402 400 8.6736173798840355e-19
402 401 0
402 402 0.10940170940170933
403 205 -0.0042378917378917361
403 206 -0.00020032051282051257
403 207 -0.0040064102564102543
403 208 -0.010220797720797719
403 209 2.1684043449710089e-19
403 210 7.589415207398531e-19
403 211 -0.004237891737891737
403 212 0.0002003205128205126
403 213 0.0040064102564102561
403 244 -0.0027866809116809093
403 245 0.0010016025641025636
403 246 -0.0020032051282051267
403 247 -0.0077813390313390294
403 248 -2.9815559743351372e-19
403 249 4.87890977618477e-19
403 250 -0.002786680911680911
403 251 -0.001001602564102564
403 252 0.0020032051282051276
403 400 0.0044159544159544052
403 401 -0.00080128205128205125
403 402 -2.1684043449710089e-19
403 403 0.04458689458689459
404 205 0.00020032051282051281
404 206 -0.0023237179487179478
404 207 0.00066773504273504242
404 208 2.1684043449710089e-19
404 209 -0.0073717948717948699
404 210 0.0026709401709401727
404 211 -0.00020032051282051298
404 212 -0.0023237179487179491
404 213 0.00066773504273504307
404 244 0.0010016025641025636
404 245 -0.003498931623931621
404 246 0.0033386752136752105
404 247 -1.6263032587282567e-19
404 248 -0.01303418803418803
404 249 0.013354700854700852
404 250 -0.001001602564102564
404 251 -0.0034989316239316236
404 252 0.003338675213675214
404 400 0.00080128205128205125
404 401 0.012072649572649563
404 402 -4.3368086899420177e-19
404 403 4.3368086899420177e-19
404 404 0.055982905982905978
405 205 -0.0040064102564102552
405 206 -0.00066773504273504156
405 207 -0.012339743589743581
405 208 2.1684043449710089e-19
405 209 -0.0026709401709401688
405 210 -0.04743589743589742
405 211 0.0040064102564102552
405 212 -0.00066773504273504199
405 213 -0.012339743589743588
405 244 -0.0020032051282051272
405 245 0.0033386752136752101
405 246 -0.0068376068376068281
405 247 2.7105054312137611e-19
405 248 0.013354700854700852
405 249 -0.026388888888888878
405 250 0.0020032051282051276
405 251 0.0033386752136752144
405 252 -0.006837606837606835
405 400 0
405 401 -4.3368086899420177e-19
405 402 0.025427350427350399
405 403 0
405 404 8.6736173798840355e-19
405 405 0.10940170940170937
406 208 -0.0042378917378917387
406 209 -0.00020032051282051281
406 210 -0.0040064102564102561
406 211 -0.01022079772079772
406 212 -2.1684043449710089e-19
406 213 1.0842021724855044e-19
406 214 -0.0042378917378917379
406 215 0.00020032051282051276
406 216 0.0040064102564102561
406 247 -0.0027866809116809115
406 248 0.0010016025641025638
406 249 -0.0020032051282051276
406 250 -0.0077813390313390303
406 251 -1.3552527156068805e-19
406 252 3.7947076036992655e-19
406 253 -0.0027866809116809097
406 254 -0.0010016025641025636
406 255 0.0020032051282051272
406 403 0.0044159544159544165
406 404 -0.00080128205128205169
406 405 -3.2526065174565133e-19
406 406 0.044586894586894583
407 208 0.00020032051282051273
407 209 -0.00232371794871795
407 210 0.00066773504273504221
407 211 -2.1684043449710089e-19
407 212 -0.0073717948717948699
407 213 0.0026709401709401693
407 214 -0.00020032051282051279
407 215 -0.0023237179487179496
407 216 0.00066773504273504156
407 247 0.0010016025641025636
407 248 -0.0034989316239316241
407 249 0.0033386752136752144
407 250 -1.8973538018496328e-19
407 251 -0.013034188034188033
407 252 0.013354700854700854
407 253 -0.0010016025641025638
407 254 -0.003498931623931621
407 255 0.0033386752136752109
407 403 0.00080128205128205104
407 404 0.012072649572649573
407 405 -4.3368086899420177e-19
407 406 -8.6736173798840355e-19
407 407 0.055982905982905978
408 208 -0.0040064102564102561
408 209 -0.00066773504273504296
408 210 -0.012339743589743591
408 211 2.1684043449710089e-19
408 212 -0.0026709401709401719
408 213 -0.047435897435897427
408 214 0.0040064102564102552
408 215 -0.00066773504273504318
408 216 -0.012339743589743588
408 247 -0.0020032051282051276
408 248 0.0033386752136752144
408 249 -0.0068376068376068376
408 250 3.7947076036992655e-19
408 251 0.013354700854700854
408 252 -0.026388888888888882
408 253 0.0020032051282051272
408 254 0.0033386752136752109
408 255 -0.0068376068376068324
408 403 -9.7578195523695399e-19
408 404 -8.6736173798840355e-19
408 405 0.025427350427350427
408 406 -2.6020852139652106e-18
408 407 -5.2041704279304213e-18
408 408 0.10940170940170937
409 211 -0.0042378917378917335
409 212 -0.00020032051282051249
409 213 -0.0040064102564102535
409 214 -0.01022079772079772
409 215 0
409 216 -7.589415207398531e-19
409 217 -0.0042378917378917387
409 218 0.00020032051282051249
409 219 0.0040064102564102561
409 250 -0.0027866809116809102
409 251 0.0010016025641025638
409 252 -0.0020032051282051272
409 253 -0.0077813390313390303
409 254 -2.439454888092385e-19
409 255 -5.4210108624275222e-20
409 256 -0.0027866809116809128
409 257 -0.0010016025641025638
409 258 0.0020032051282051276
409 406 0.0044159544159544069
409 407 -0.00080128205128205082
409 408 2.2768245622195593e-18
409 409 0.044586894586894577
410 211 0.000200320512820513
410 212 -0.0023237179487179457
410 213 0.00066773504273504296
410 214 -2.1684043449710089e-19
410 215 -0.0073717948717948699
410 216 0.0026709401709401697
410 217 -0.00020032051282051306
410 218 -0.00232371794871795
410 219 0.00066773504273504307
410 250 0.0010016025641025638
410 251 -0.0034989316239316219
410 252 0.0033386752136752118
410 253 -1.8973538018496328e-19
410 254 -0.013034188034188033
410 255 0.013354700854700852
410 256 -0.0010016025641025638
410 257 -0.0034989316239316254
410 258 0.0033386752136752144
410 406 0.0008012820512820519
410 407 0.012072649572649564
410 408 8.6736173798840355e-19
410 409 0
410 410 0.055982905982905985
411 211 -0.0040064102564102552
411 212 -0.00066773504273504101
411 213 -0.012339743589743574
411 214 -8.6736173798840355e-19
411 215 -0.0026709401709401723
411 216 -0.047435897435897427
411 217 0.0040064102564102552
411 218 -0.00066773504273504286
411 219 -0.012339743589743593
411 250 -0.0020032051282051272
411 251 0.0033386752136752118
411 252 -0.0068376068376068315
411 253 -1.6263032587282567e-19
411 254 0.013354700854700852
411 255 -0.026388888888888882
411 256 0.0020032051282051276
411 257 0.0033386752136752157
411 258 -0.0068376068376068402
411 406 2.6020852139652106e-18
411 407 1.3010426069826053e-18
411 408 0.025427350427350406
411 409 -5.2041704279304213e-18
411 410 0
411 411 0.10940170940170937
412 214 -0.0042378917378917353
412 215 -0.00020032051282051284
412 216 -0.0040064102564102552
412 217 -0.010220797720797712
412 218 -4.3368086899420177e-19
412 219 -2.1684043449710089e-19
412 220 -0.0042378917378917361
412 221 0.00020032051282051317
412 222 0.0040064102564102561
412 253 -0.0027866809116809097
412 254 0.0010016025641025636
412 255 -0.0020032051282051267
412 256 -0.0077813390313390251
412 257 -2.7105054312137611e-19
412 258 1.6263032587282567e-19
412 259 -0.0027866809116809067
412 260 -0.0010016025641025636
412 261 0.0020032051282051272
412 409 0.0044159544159544165
412 410 -0.00080128205128205212
412 411 1.951563910473908e-18
412 412 0.044586894586894563
413 214 0.00020032051282051271
413 215 -0.0023237179487179457
413 216 0.00066773504273504101
413 217 -6.5052130349130266e-19
413 218 -0.0073717948717948682
413 219 0.0026709401709401688
413 220 -0.00020032051282051241
413 221 -0.0023237179487179483
413 222 0.00066773504273503819
413 253 0.0010016025641025636
413 254 -0.0034989316239316228
413 255 0.0033386752136752131
413 256 -3.2526065174565133e-19
413 257 -0.013034188034188024
413 258 0.013354700854700845
413 259 -0.0010016025641025636
413 260 -0.0034989316239316158
413 261 0.003338675213675207
413 409 0.00080128205128205039
413 410 0.012072649572649575
413 411 -2.6020852139652106e-18
413 412 -2.1684043449710089e-18
413 413 0.055982905982905944
414 214 -0.0040064102564102552
414 215 -0.00066773504273504427
414 216 -0.012339743589743579
414 217 -7.589415207398531e-19
414 218 -0.002670940170940168
414 219 -0.047435897435897406
414 220 0.0040064102564102552
414 221 -0.00066773504273504427
414 222 -0.012339743589743577
414 253 -0.0020032051282051272
414 254 0.0033386752136752131
414 255 -0.0068376068376068333
414 256 2.7105054312137611e-19
414 257 0.013354700854700845
414 258 -0.026388888888888868
414 259 0.0020032051282051272
414 260 0.0033386752136752075
414 261 -0.0068376068376068237
414 409 2.1684043449710089e-18
414 410 -1.7347234759768071e-18
414 411 0.02542735042735042
414 412 -5.2041704279304213e-18
414 413 9.540979117872439e-18
414 414 0.10940170940170932
415 217 -0.0042378917378917327
415 218 -0.00020032051282051216
415 219 -0.0040064102564102543
415 220 -0.010220797720797712
415 221 -8.6736173798840355e-19
415 222 2.1684043449710089e-19
415 223 -0.0042378917378917353
415 224 0.00020032051282051295
415 225 0.0040064102564102552
415 256 -0.0027866809116809097
415 257 0.001001602564102564
415 258 -0.0020032051282051276
415 259 -0.0077813390313390251
415 260 -6.2341624917916505e-19
415 261 5.4210108624275222e-20
415 262 -0.0027866809116809128
415 263 -0.0010016025641025636
415 264 0.002003205128205128
415 412 0.0044159544159543956
415 413 -0.00080128205128204919
415 414 1.1926223897340549e-18
415 415 0.044586894586894577
416 217 0.0002003205128205133
416 218 -0.0023237179487179448
416 219 0.00066773504273504307
416 220 -8.6736173798840355e-19
416 221 -0.0073717948717948664
416 222 0.0026709401709401684
416 223 -0.00020032051282051252
416 224 -0.0023237179487179465
416 225 0.00066773504273504286
416 256 0.0010016025641025638
416 257 -0.003498931623931621
416 258 0.0033386752136752105
416 259 -5.9631119486702744e-19
416 260 -0.013034188034188026
416 261 0.013354700854700844
416 262 -0.0010016025641025636
416 263 -0.0034989316239316236
416 264 0.0033386752136752131
416 412 0.00080128205128205342
416 413 0.012072649572649547
416 414 -5.2041704279304213e-18
416 415 -2.6020852139652106e-18
416 416 0.055982905982905951
417 217 -0.0040064102564102543
417 218 -0.00066773504273503993
417 219 -0.012339743589743565
417 220 0
417 221 -0.0026709401709401693
417 222 -0.047435897435897392
417 223 0.0040064102564102543
417 224 -0.00066773504273504264
417 225 -0.012339743589743584
417 256 -0.0020032051282051276
417 257 0.0033386752136752105
417 258 -0.0068376068376068298
417 259 5.4210108624275222e-20
417 260 0.013354700854700845
417 261 -0.026388888888888871
417 262 0.0020032051282051276
417 263 0.0033386752136752127
417 264 -0.0068376068376068411
417 412 1.1926223897340549e-18
417 413 -4.3368086899420177e-18
417 414 0.025427350427350379
417 415 -8.6736173798840355e-19
417 416 -5.2041704279304213e-18
417 417 0.1094017094017093
418 220 -0.0042378917378917361
418 221 -0.00020032051282051222
418 222 -0.0040064102564102552
418 223 -0.01022079772079772
418 224 0
418 225 -5.4210108624275222e-19
418 226 -0.0042378917378917387
418 227 0.00020032051282051224
418 228 0.0040064102564102561
418 259 -0.0027866809116809089
418 260 0.001001602564102564
418 261 -0.0020032051282051263
418 262 -0.0077813390313390338
418 263 -8.1315162936412833e-20
418 264 5.4210108624275222e-20
418 265 -0.0027866809116809102
418 266 -0.0010016025641025642
418 267 0.0020032051282051267
418 415 0.0044159544159544147
418 416 -0.00080128205128204995
418 417 -5.4210108624275222e-19
418 418 0.044586894586894583
419 220 0.00020032051282051325
419 221 -0.0023237179487179474
419 222 0.00066773504273504665
419 223 -2.1684043449710089e-19
419 224 -0.0073717948717948682
419 225 0.002670940170940171
419 226 -0.00020032051282051327
419 227 -0.0023237179487179509
419 228 0.00066773504273504492
419 259 0.0010016025641025638
419 260 -0.0034989316239316215
419 261 0.0033386752136752118
419 262 -2.7105054312137611e-20
419 263 -0.013034188034188036
419 264 0.013354700854700863
419 265 -0.001001602564102564
419 266 -0.0034989316239316245
419 267 0.0033386752136752144
419 415 0.00080128205128205299
419 416 0.012072649572649573
419 417 5.2041704279304213e-18
419 418 -4.3368086899420177e-19
419 419 0.055982905982905992
420 220 -0.0040064102564102552
420 221 -0.00066773504273503884
420 222 -0.012339743589743586
420 223 -2.1684043449710089e-19
420 224 -0.0026709401709401727
420 225 -0.047435897435897434
420 226 0.0040064102564102552
420 227 -0.0006677350427350408
420 228 -0.012339743589743598
420 259 -0.0020032051282051267
420 260 0.0033386752136752118
420 261 -0.0068376068376068263
420 262 0
420 263 0.013354700854700859
420 264 -0.026388888888888889
420 265 0.0020032051282051272
420 266 0.0033386752136752148
420 267 -0.0068376068376068324
420 415 -4.3368086899420177e-19
420 416 6.5052130349130266e-18
420 417 0.02542735042735042
420 418 -3.4694469519536142e-18
420 419 -7.8062556418956319e-18
420 420 0.1094017094017094
421 223 -0.0042378917378917335
421 224 -0.00020032051282051306
421 225 -0.0040064102564102543
421 226 -0.010220797720797715
421 227 2.1684043449710089e-19
421 228 1.3010426069826053e-18
421 229 -0.0042378917378917266
421 230 0.00020032051282051273
421 231 0.0040064102564102543
421 262 -0.0027866809116809128
421 263 0.0010016025641025636
421 264 -0.002003205128205128
421 265 -0.0077813390313390268
421 266 0
421 267 9.2157184661267877e-19
421 268 -0.0027866809116809084
421 269 -0.001001602564102564
421 270 0.0020032051282051276
421 418 0.0044159544159544165
421 419 -0.00080128205128205288
421 420 2.4936649967166602e-18
421 421 0.04458689458689457
422 223 0.00020032051282051243
422 224 -0.0023237179487179452
422 225 0.00066773504273504058
422 226 2.1684043449710089e-19
422 227 -0.0073717948717948699
422 228 0.0026709401709401723
422 229 -0.00020032051282051284
422 230 -0.0023237179487179383
422 231 0.00066773504273504166
422 262 0.0010016025641025634
422 263 -0.0034989316239316245
422 264 0.0033386752136752148
422 265 1.0842021724855044e-19
422 266 -0.01303418803418803
422 267 0.013354700854700845
422 268 -0.0010016025641025638
422 269 -0.0034989316239316189
422 270 0.0033386752136752088
422 418 0.00080128205128204941
422 419 0.012072649572649575
422 420 -2.1684043449710089e-18
422 421 1.7347234759768071e-18
422 422 0.055982905982905957
423 223 -0.0040064102564102543
423 224 -0.00066773504273504481
423 225 -0.012339743589743579
423 226 1.3010426069826053e-18
423 227 -0.0026709401709401662
423 228 -0.047435897435897413
423 229 0.0040064102564102526
423 230 -0.00066773504273504134
423 231 -0.012339743589743546
423 262 -0.0020032051282051276
423 263 0.003338675213675214
423 264 -0.0068376068376068437
423 265 7.589415207398531e-19
423 266 0.013354700854700845
423 267 -0.026388888888888875
423 268 0.0020032051282051272
423 269 0.0033386752136752083
423 270 -0.0068376068376068281
423 418 2.4936649967166602e-18
423 419 -1.7347234759768071e-18
423 420 0.02542735042735042
423 421 4.3368086899420177e-18
423 422 7.8062556418956319e-18
423 423 0.10940170940170933
424 226 -0.0042378917378917422
424 227 -0.00020032051282051276
424 228 -0.0040064102564102578
424 229 -0.010220797720797715
424 230 4.3368086899420177e-19
424 231 3.7947076036992655e-18
424 232 -0.0042378917378917318
424 233 0.00020032051282051222
424 234 0.0040064102564102535
424 265 -0.0027866809116809093
424 266 0.0010016025641025638
424 267 -0.0020032051282051276
424 268 -0.0077813390313390277
424 269 1.0842021724855044e-19
424 270 1.1926223897340549e-18
424 271 -0.0027866809116809093
424 272 -0.0010016025641025642
424 273 0.0020032051282051267
424 421 0.0044159544159543991
424 422 -0.00080128205128205136
424 423 -7.4809949901499806e-18
424 424 0.044586894586894577
425 226 0.00020032051282051281
425 227 -0.0023237179487179543
425 228 0.00066773504273504242
425 229 4.3368086899420177e-19
425 230 -0.0073717948717948682
425 231 0.0026709401709401736
425 232 -0.00020032051282051327
425 233 -0.0023237179487179422
425 234 0.000667735042735046
425 265 0.0010016025641025638
425 266 -0.0034989316239316197
425 267 0.0033386752136752088
425 268 1.6263032587282567e-19
425 269 -0.01303418803418803
425 270 0.013354700854700854
425 271 -0.0010016025641025642
425 272 -0.0034989316239316236
425 273 0.0033386752136752148
425 421 0.00080128205128205125
425 422 0.012072649572649554
425 423 4.3368086899420177e-19
425 424 2.6020852139652106e-18
425 425 0.055982905982905971
426 226 -0.0040064102564102578
426 227 -0.00066773504273504231
426 228 -0.012339743589743601
426 229 4.1199682554449168e-18
426 230 -0.0026709401709401675
426 231 -0.047435897435897413
426 232 0.0040064102564102535
426 233 -0.0006677350427350396
426 234 -0.01233974358974357
426 265 -0.0020032051282051276
426 266 0.0033386752136752088
426 267 -0.0068376068376068289
426 268 1.1926223897340549e-18
426 269 0.013354700854700852
426 270 -0.026388888888888878
426 271 0.0020032051282051272
426 272 0.003338675213675214
426 273 -0.0068376068376068298
426 421 -8.0230960763927328e-18
426 422 -2.6020852139652106e-18
426 423 0.025427350427350386
426 424 1.214306433183765e-17
426 425 -2.6020852139652106e-18
426 426 0.10940170940170935
427 229 -0.0042378917378917431
427 230 -0.00020032051282051311
427 231 -0.0040064102564102561
427 232 -0.0051103988603988645
427 233 -0.0010016025641025634
427 234 -0.00080128205128204974
427 268 -0.0027866809116809136
427 269 0.0010016025641025636
427 270 -0.002003205128205128
427 271 -0.0038906695156695186
427 272 0.000200320512820513
427 273 -0.0004006410256410246
427 424 0.0044159544159544217
427 425 -0.00080128205128205331
427 426 -5.7462715141731735e-18
427 427 0.022293447293447295
428 229 0.00020032051282051238
428 230 -0.0023237179487179535
428 231 0.00066773504273504177
428 232 -0.0010016025641025636
428 233 -0.0036858974358974397
428 234 0.0013354700854700853
428 268 0.0010016025641025636
428 269 -0.0034989316239316262
428 270 0.0033386752136752148
428 271 -0.00020032051282051249
428 272 -0.0065170940170940217
428 273 0.0066773504273504296
428 424 0.0008012820512820493
428 425 0.012072649572649582
428 426 -8.6736173798840355e-19
428 427 -0.0040064102564102543
428 428 0.027991452991452996
429 229 -0.0040064102564102569
429 230 -0.00066773504273504502
429 231 -0.012339743589743612
429 232 0.00080128205128205256
429 233 -0.0013354700854700857
429 234 -0.023717948717948731
429 268 -0.002003205128205128
429 269 0.0033386752136752153
429 270 -0.006837606837606848
429 271 0.00040064102564102628
429 272 0.0066773504273504314
429 273 -0.01319444444444445
429 424 -6.2883726004159257e-18
429 425 -4.3368086899420177e-18
429 426 0.025427350427350431
429 427 6.9388939039072284e-18
429 428 -1.1275702593849246e-17
429 429 0.054700854700854708
430 196 -0.0038906695156695125
430 197 0.00020032051282051276
430 198 0.00040064102564102552
430 199 -0.0027866809116809102
430 200 0.0010016025641025636
430 201 0.0020032051282051276
430 235 -0.010220797720797715
430 236 -4.3368086899420177e-19
430 237 0.0016025641025641029
430 238 -0.008475783475783474
430 239 -1.8973538018496328e-19
430 240 0.0080128205128205121
430 274 -0.003890669515669513
430 275 -0.00020032051282051284
430 276 0.00040064102564102574
430 277 -0.0027866809116809102
430 278 -0.0010016025641025638
430 279 0.0020032051282051276
430 391 0.0058048433048433004
430 392 0.00080128205128205104
430 393 -8.6736173798840355e-19
430 394 -0.00046296296296296569
430 395 0.0040064102564102561
430 396 -2.1684043449710089e-19
430 430 0.044586894586894577
431 196 -0.00020032051282051268
431 197 -0.0065170940170940122
431 198 -0.0066773504273504227
431 199 0.0010016025641025638
431 200 -0.0034989316239316215
431 201 -0.0033386752136752114
431 235 -2.1684043449710089e-19
431 236 -0.0073717948717948673
431 237 4.3368086899420177e-19
431 238 -1.3552527156068805e-19
431 239 -0.0046474358974358957
431 240 1.0842021724855044e-19
431 274 0.00020032051282051262
431 275 -0.0065170940170940139
431 276 0.0066773504273504227
431 277 -0.0010016025641025638
431 278 -0.0034989316239316223
431 279 0.0033386752136752118
431 391 -0.00080128205128205125
431 392 -0.004700854700854705
431 393 -8.6736173798840355e-19
431 394 0.0040064102564102561
431 395 -0.0033119658119658132
431 396 -4.3368086899420177e-19
431 430 -1.3010426069826053e-18
431 431 0.055982905982905964
432 196 -0.00040064102564102536
432 197 -0.0066773504273504227
432 198 -0.013194444444444434
432 199 0.0020032051282051272
432 200 -0.0033386752136752109
432 201 -0.0068376068376068324
432 235 -0.0016025641025641016
432 236 4.3368086899420177e-19
432 237 -0.047435897435897413
432 238 0.0080128205128205104
432 239 4.3368086899420177e-19
432 240 -0.024679487179487165
432 274 -0.0004006410256410253
432 275 0.0066773504273504236
432 276 -0.013194444444444437
432 277 0.0020032051282051276
432 278 0.0033386752136752118
432 279 -0.0068376068376068333
432 391 -8.6736173798840355e-19
432 392 2.1684043449710089e-19
432 393 0.022008547008546986
432 394 -5.4210108624275222e-20
432 395 -1.0842021724855044e-19
432 396 0.010042735042735031
432 430 -1.7347234759768071e-18
432 431 -2.6020852139652106e-18
432 432 0.10940170940170933
433 196 -0.0027866809116809102
433 197 -0.0010016025641025638
433 198 -0.0020032051282051276
433 199 -0.0077813390313390268
433 200 1.3552527156068805e-19
433 201 -1.0842021724855044e-19
433 202 -0.0027866809116809106
433 203 0.0010016025641025636
433 204 0.0020032051282051276
433 235 -0.0084757834757834723
433 236 2.9815559743351372e-19
433 237 -0.0080128205128205104
433 238 -0.020441595441595434
433 239 -2.1684043449710089e-19
433 240 5.4210108624275222e-19
433 241 -0.0084757834757834757
433 242 -1.3552527156068805e-19
433 243 0.0080128205128205121
433 274 -0.0027866809116809102
433 275 0.0010016025641025636
433 276 -0.0020032051282051276
433 277 -0.0077813390313390286
433 278 -1.3552527156068805e-19
433 279 2.1684043449710089e-19
433 280 -0.0027866809116809106
433 281 -0.0010016025641025638
433 282 0.0020032051282051276
433 391 -0.0004629629629629658
433 392 -0.0040064102564102561
433 393 5.4210108624275222e-20
433 394 0.011609686609686599
433 395 0
433 396 -1.7347234759768071e-18
433 397 -0.00046296296296296591
433 398 0.0040064102564102561
433 399 2.7105054312137611e-19
433 430 0.0088319088319088173
433 431 1.0842021724855044e-19
433 432 -3.2526065174565133e-19
433 433 0.089173789173789153
434 196 -0.0010016025641025636
434 197 -0.003498931623931621
434 198 -0.0033386752136752118
434 199 1.0842021724855044e-19
434 200 -0.013034188034188026
434 201 -0.013354700854700849
434 202 0.0010016025641025636
434 203 -0.0034989316239316219
434 204 -0.0033386752136752118
434 235 2.7105054312137611e-19
434 236 -0.0046474358974358948
434 237 0
434 238 -2.1684043449710089e-19
434 239 -0.01474358974358974
434 240 6.5052130349130266e-19
434 241 -8.1315162936412833e-20
434 242 -0.0046474358974358983
434 243 1.0842021724855044e-19
434 274 0.0010016025641025636
434 275 -0.0034989316239316223
434 276 0.0033386752136752118
434 277 -2.1684043449710089e-19
434 278 -0.01303418803418803
434 279 0.013354700854700849
434 280 -0.0010016025641025638
434 281 -0.0034989316239316228
434 282 0.0033386752136752122
434 391 -0.0040064102564102561
434 392 -0.0033119658119658132
434 393 -2.1684043449710089e-19
434 394 -2.1684043449710089e-19
434 395 -0.0094017094017094117
434 396 1.0842021724855044e-18
434 397 0.0040064102564102561
434 398 -0.0033119658119658145
434 399 -1.5178830414797062e-18
434 430 -1.6263032587282567e-19
434 431 0.024145299145299129
434 432 -2.1684043449710089e-18
434 433 0
434 434 0.11196581196581193
435 196 -0.0020032051282051272
435 197 -0.0033386752136752114
435 198 -0.0068376068376068324
435 199 -5.4210108624275222e-20
435 200 -0.013354700854700849
435 201 -0.026388888888888871
435 202 0.0020032051282051276
435 203 -0.0033386752136752122
435 204 -0.0068376068376068333
435 235 -0.0080128205128205121
435 236 3.2526065174565133e-19
435 237 -0.024679487179487161
435 238 5.4210108624275222e-19
435 239 6.5052130349130266e-19
435 240 -0.09487179487179484
435 241 0.0080128205128205121
435 242 2.1684043449710089e-19
435 243 -0.024679487179487172
435 274 -0.0020032051282051276
435 275 0.0033386752136752118
435 276 -0.0068376068376068324
435 277 5.4210108624275222e-20
435 278 0.013354700854700849
435 279 -0.026388888888888878
435 280 0.0020032051282051276
435 281 0.0033386752136752127
435 282 -0.006837606837606835
435 391 2.1684043449710089e-19
435 392 -2.1684043449710089e-19
435 393 0.010042735042735031
435 394 -1.3010426069826053e-18
435 395 1.0842021724855044e-18
435 396 0.044017094017093979
435 397 4.87890977618477e-19
435 398 -1.1926223897340549e-18
435 399 0.010042735042735031
435 430 -5.4210108624275222e-19
435 431 -2.1684043449710089e-18
435 432 0.050854700854700813
435 433 -3.4694469519536142e-18
435 434 -1.1275702593849246e-17
435 435 0.21880341880341872
436 199 -0.0027866809116809093
436 200 -0.0010016025641025638
436 201 -0.0020032051282051276
436 202 -0.0077813390313390268
436 203 2.1684043449710089e-19
436 204 1.6263032587282567e-19
436 205 -0.0027866809116809097
436 206 0.0010016025641025636
436 207 0.0020032051282051276
436 238 -0.0084757834757834705
436 239 3.2526065174565133e-19
436 240 -0.0080128205128205104
436 241 -0.020441595441595437
436 242 -4.3368086899420177e-19
436 243 9.7578195523695399e-19
436 244 -0.0084757834757834723
436 245 -2.439454888092385e-19
436 246 0.0080128205128205121
436 277 -0.0027866809116809102
436 278 0.0010016025641025638
436 279 -0.0020032051282051276
436 280 -0.0077813390313390286
436 281 -2.439454888092385e-19
436 282 1.6263032587282567e-19
436 283 -0.0027866809116809102
436 284 -0.001001602564102564
436 285 0.0020032051282051276
436 394 -0.00046296296296296558
436 395 -0.0040064102564102561
436 396 8.1315162936412833e-19
436 397 0.011609686609686597
436 398 0
436 399 -1.3010426069826053e-18
436 400 -0.00046296296296296515
436 401 0.0040064102564102561
436 402 -4.87890977618477e-19
436 433 0.0088319088319088208
436 434 0
436 435 2.8189256484623115e-18
436 436 0.089173789173789153
437 199 -0.0010016025641025636
437 200 -0.0034989316239316202
437 201 -0.0033386752136752118
437 202 1.0842021724855044e-19
437 203 -0.013034188034188026
437 204 -0.013354700854700849
437 205 0.0010016025641025636
437 206 -0.003498931623931621
437 207 -0.0033386752136752122
437 238 4.0657581468206416e-19
437 239 -0.0046474358974358931
437 240 4.3368086899420177e-19
437 241 -4.3368086899420177e-19
437 242 -0.014743589743589742
437 243 1.5178830414797062e-18
437 244 -1.8973538018496328e-19
437 245 -0.0046474358974358948
437 246 8.6736173798840355e-19
437 277 0.0010016025641025638
437 278 -0.0034989316239316215
437 279 0.0033386752136752114
437 280 -1.8973538018496328e-19
437 281 -0.013034188034188031
437 282 0.013354700854700852
437 283 -0.0010016025641025638
437 284 -0.0034989316239316223
437 285 0.0033386752136752118
437 394 -0.0040064102564102561
437 395 -0.0033119658119658141
437 396 1.5178830414797062e-18
437 397 -5.4210108624275222e-20
437 398 -0.0094017094017094169
437 399 -8.6736173798840355e-19
437 400 0.0040064102564102561
437 401 -0.0033119658119658141
437 402 -2.1684043449710089e-19
437 433 5.4210108624275222e-20
437 434 0.024145299145299132
437 435 -1.3010426069826053e-18
437 436 -8.6736173798840355e-19
437 437 0.11196581196581196
438 199 -0.0020032051282051272
438 200 -0.0033386752136752118
438 201 -0.0068376068376068298
438 202 -5.4210108624275222e-20
438 203 -0.013354700854700849
438 204 -0.026388888888888875
438 205 0.0020032051282051272
438 206 -0.0033386752136752122
438 207 -0.0068376068376068324
438 238 -0.0080128205128205104
438 239 7.589415207398531e-19
438 240 -0.024679487179487158
438 241 9.7578195523695399e-19
438 242 8.6736173798840355e-19
438 243 -0.09487179487179484
438 244 0.0080128205128205104
438 245 1.5178830414797062e-18
438 246 -0.024679487179487165
438 277 -0.0020032051282051272
438 278 0.0033386752136752118
438 279 -0.0068376068376068315
438 280 5.4210108624275222e-20
438 281 0.013354700854700849
438 282 -0.026388888888888882
438 283 0.0020032051282051276
438 284 0.0033386752136752122
438 285 -0.0068376068376068333
438 394 7.589415207398531e-19
438 395 1.3010426069826053e-18
438 396 0.010042735042735035
438 397 -1.3010426069826053e-18
438 398 4.3368086899420177e-19
438 399 0.044017094017093979
438 400 -2.1684043449710089e-19
438 401 4.3368086899420177e-19
438 402 0.010042735042735033
438 433 1.6263032587282567e-18
438 434 -1.3010426069826053e-18
438 435 0.05085470085470082
438 436 -2.6020852139652106e-18
438 437 -2.6020852139652106e-18
438 438 0.21880341880341869
439 202 -0.0027866809116809097
439 203 -0.0010016025641025638
439 204 -0.0020032051282051276
439 205 -0.0077813390313390251
439 206 2.439454888092385e-19
439 207 1.0842021724855044e-19
439 208 -0.0027866809116809097
439 209 0.0010016025641025636
439 210 0.0020032051282051272
439 241 -0.008475783475783474
439 242 1.0842021724855044e-19
439 243 -0.0080128205128205121
439 244 -0.020441595441595434
439 245 -4.3368086899420177e-19
439 246 5.4210108624275222e-19
439 247 -0.0084757834757834723
439 248 -1.8973538018496328e-19
439 249 0.0080128205128205121
439 280 -0.0027866809116809106
439 281 0.0010016025641025638
439 282 -0.0020032051282051276
439 283 -0.0077813390313390268
439 284 2.7105054312137611e-20
439 285 2.1684043449710089e-19
439 286 -0.0027866809116809102
439 287 -0.0010016025641025636
439 288 0.0020032051282051276
439 397 -0.00046296296296296596
439 398 -0.0040064102564102561
439 399 -1.0842021724855044e-19
439 400 0.011609686609686599
439 401 2.1684043449710089e-19
439 402 -8.6736173798840355e-19
439 403 -0.00046296296296296667
439 404 0.0040064102564102561
439 405 2.7105054312137611e-19
439 436 0.0088319088319088225
439 437 -2.1684043449710089e-19
439 438 -3.2526065174565133e-19
439 439 0.089173789173789153
440 202 -0.0010016025641025638
440 203 -0.0034989316239316219
440 204 -0.0033386752136752127
440 205 2.7105054312137611e-19
440 206 -0.013034188034188024
440 207 -0.013354700854700845
440 208 0.0010016025641025636
440 209 -0.0034989316239316202
440 210 -0.0033386752136752105
440 241 1.0842021724855044e-19
440 242 -0.0046474358974358965
440 243 0
440 244 -6.5052130349130266e-19
440 245 -0.014743589743589738
440 246 1.7347234759768071e-18
440 247 -1.3552527156068805e-19
440 248 -0.0046474358974358965
440 249 0
440 280 0.0010016025641025636
440 281 -0.0034989316239316223
440 282 0.0033386752136752122
440 283 -8.1315162936412833e-20
440 284 -0.01303418803418803
440 285 0.013354700854700849
440 286 -0.0010016025641025638
440 287 -0.0034989316239316215
440 288 0.0033386752136752114
440 397 -0.0040064102564102561
440 398 -0.0033119658119658158
440 399 -1.3010426069826053e-18
440 400 2.7105054312137611e-19
440 401 -0.0094017094017094134
440 402 -1.3010426069826053e-18
440 403 0.0040064102564102561
440 404 -0.0033119658119658132
440 405 -1.3010426069826053e-18
440 436 -2.7105054312137611e-19
440 437 0.024145299145299136
440 438 -4.3368086899420177e-19
440 439 -4.3368086899420177e-19
440 440 0.11196581196581191
441 202 -0.0020032051282051276
441 203 -0.0033386752136752127
441 204 -0.0068376068376068333
441 205 -1.0842021724855044e-19
441 206 -0.013354700854700849
441 207 -0.026388888888888871
441 208 0.0020032051282051272
441 209 -0.0033386752136752109
441 210 -0.0068376068376068298
441 241 -0.0080128205128205121
441 242 2.1684043449710089e-19
441 243 -0.024679487179487168
441 244 6.5052130349130266e-19
441 245 1.5178830414797062e-18
441 246 -0.094871794871794826
441 247 0.0080128205128205104
441 248 2.1684043449710089e-19
441 249 -0.024679487179487161
441 280 -0.0020032051282051276
441 281 0.0033386752136752118
441 282 -0.006837606837606835
441 283 1.0842021724855044e-19
441 284 0.013354700854700849
441 285 -0.026388888888888878
441 286 0.0020032051282051276
441 287 0.0033386752136752114
441 288 -0.0068376068376068333
441 397 -1.0842021724855044e-19
441 398 -8.6736173798840355e-19
441 399 0.010042735042735031
441 400 -8.6736173798840355e-19
441 401 8.6736173798840355e-19
441 402 0.044017094017093972
441 403 2.7105054312137611e-19
441 404 -1.8431436932253575e-18
441 405 0.01004273504273503
441 436 -1.0842021724855044e-18
441 437 0
441 438 0.05085470085470082
441 439 -2.6020852139652106e-18
441 440 -4.3368086899420177e-18
441 441 0.21880341880341869
442 205 -0.0027866809116809089
442 206 -0.0010016025641025636
442 207 -0.0020032051282051276
442 208 -0.0077813390313390277
442 209 1.3552527156068805e-19
442 210 1.6263032587282567e-19
442 211 -0.0027866809116809102
442 212 0.0010016025641025636
442 213 0.0020032051282051272
442 244 -0.0084757834757834705
442 245 4.6078592330633938e-19
442 246 -0.0080128205128205104
442 247 -0.020441595441595441
442 248 2.1684043449710089e-19
442 249 1.1926223897340549e-18
442 250 -0.0084757834757834723
442 251 -4.0657581468206416e-19
442 252 0.0080128205128205121
442 283 -0.0027866809116809097
442 284 0.0010016025641025638
442 285 -0.0020032051282051272
442 286 -0.0077813390313390303
442 287 -1.3552527156068805e-19
442 288 4.3368086899420177e-19
442 289 -0.002786680911680911
442 290 -0.001001602564102564
442 291 0.0020032051282051276
442 400 -0.00046296296296296672
442 401 -0.0040064102564102561
442 402 5.4210108624275222e-19
442 403 0.011609686609686601
442 404 1.0842021724855044e-19
442 405 -4.3368086899420177e-19
442 406 -0.00046296296296296298
442 407 0.0040064102564102561
442 408 -5.9631119486702744e-19
442 439 0.0088319088319088121
442 440 5.4210108624275222e-20
442 441 9.7578195523695399e-19
442 442 0.089173789173789167
443 205 -0.0010016025641025636
443 206 -0.0034989316239316202
443 207 -0.0033386752136752105
443 208 5.4210108624275222e-20
443 209 -0.01303418803418803
443 210 -0.013354700854700849
443 211 0.0010016025641025638
443 212 -0.0034989316239316228
443 213 -0.0033386752136752135
443 244 3.2526065174565133e-19
443 245 -0.0046474358974358939
443 246 4.3368086899420177e-19
443 247 0
443 248 -0.014743589743589745
443 249 -6.5052130349130266e-19
443 250 -4.0657581468206416e-19
443 251 -0.0046474358974358965
443 252 1.1926223897340549e-18
443 283 0.0010016025641025636
443 284 -0.003498931623931621
443 285 0.0033386752136752109
443 286 -8.1315162936412833e-20
443 287 -0.013034188034188031
443 288 0.013354700854700854
443 289 -0.0010016025641025638
443 290 -0.0034989316239316241
443 291 0.003338675213675214
443 400 -0.0040064102564102561
443 401 -0.0033119658119658132
443 402 1.0842021724855044e-19
443 403 -5.4210108624275222e-20
443 404 -0.0094017094017094134
443 405 -2.3852447794681098e-18
443 406 0.0040064102564102561
443 407 -0.0033119658119658141
443 408 -1.0842021724855044e-19
443 439 0
443 440 0.024145299145299122
443 441 0
443 442 4.3368086899420177e-19
443 443 0.11196581196581196
444 205 -0.0020032051282051272
444 206 -0.0033386752136752109
444 207 -0.0068376068376068281
444 208 1.0842021724855044e-19
444 209 -0.013354700854700849
444 210 -0.026388888888888878
444 211 0.0020032051282051272
444 212 -0.0033386752136752131
444 213 -0.0068376068376068333
444 244 -0.0080128205128205104
444 245 3.2526065174565133e-19
444 246 -0.024679487179487154
444 247 1.0842021724855044e-18
444 248 -1.0842021724855044e-18
444 249 -0.094871794871794854
444 250 0.0080128205128205104
444 251 2.1684043449710089e-18
444 252 -0.024679487179487175
444 283 -0.0020032051282051272
444 284 0.0033386752136752114
444 285 -0.0068376068376068307
444 286 2.1684043449710089e-19
444 287 0.013354700854700852
444 288 -0.026388888888888885
444 289 0.0020032051282051276
444 290 0.0033386752136752144
444 291 -0.0068376068376068367
444 400 6.5052130349130266e-19
444 401 0
444 402 0.010042735042735028
444 403 -1.3010426069826053e-18
444 404 4.3368086899420177e-19
444 405 0.044017094017093993
444 406 -7.0473141211557788e-19
444 407 -3.2526065174565133e-19
444 408 0.010042735042735038
444 439 1.0842021724855044e-18
444 440 -4.3368086899420177e-19
444 441 0.050854700854700799
444 442 -8.6736173798840355e-19
444 443 -1.0408340855860843e-17
444 444 0.21880341880341878
445 208 -0.0027866809116809115
445 209 -0.0010016025641025638
445 210 -0.0020032051282051276
445 211 -0.0077813390313390277
445 212 1.8973538018496328e-19
445 213 3.2526065174565133e-19
445 214 -0.0027866809116809097
445 215 0.0010016025641025638
445 216 0.0020032051282051272
445 247 -0.0084757834757834757
445 248 5.4210108624275222e-20
445 249 -0.0080128205128205121
445 250 -0.020441595441595441
445 251 -4.3368086899420177e-19
445 252 1.7347234759768071e-18
445 253 -0.0084757834757834723
445 254 1.8973538018496328e-19
445 255 0.0080128205128205121
445 286 -0.0027866809116809119
445 287 0.0010016025641025638
445 288 -0.0020032051282051276
445 289 -0.0077813390313390303
445 290 -1.0842021724855044e-19
445 291 3.7947076036992655e-19
445 292 -0.0027866809116809097
445 293 -0.0010016025641025636
445 294 0.0020032051282051276
445 403 -0.00046296296296296396
445 404 -0.0040064102564102561
445 405 -3.2526065174565133e-19
445 406 0.011609686609686601
445 407 -1.6263032587282567e-19
445 408 -4.3368086899420177e-19
445 409 -0.00046296296296296667
445 410 0.0040064102564102569
445 411 -5.4210108624275222e-20
445 442 0.0088319088319088346
445 443 -3.7947076036992655e-19
445 444 -1.1926223897340549e-18
445 445 0.089173789173789153
446 208 -0.0010016025641025638
446 209 -0.0034989316239316241
446 210 -0.0033386752136752144
446 211 1.3552527156068805e-19
446 212 -0.01303418803418803
446 213 -0.013354700854700849
446 214 0.0010016025641025638
446 215 -0.0034989316239316215
446 216 -0.0033386752136752122
446 247 8.1315162936412833e-20
446 248 -0.0046474358974358991
446 249 -9.7578195523695399e-19
446 250 -4.3368086899420177e-19
446 251 -0.014743589743589742
446 252 -1.0842021724855044e-18
446 253 1.8973538018496328e-19
446 254 -0.0046474358974358948
446 255 -7.589415207398531e-19
446 286 0.0010016025641025636
446 287 -0.0034989316239316241
446 288 0.003338675213675214
446 289 -1.6263032587282567e-19
446 290 -0.013034188034188033
446 291 0.013354700854700852
446 292 -0.0010016025641025638
446 293 -0.003498931623931621
446 294 0.0033386752136752105
446 403 -0.0040064102564102569
446 404 -0.0033119658119658167
446 405 -2.0599841277224584e-18
446 406 -3.7947076036992655e-19
446 407 -0.0094017094017094169
446 408 1.951563910473908e-18
446 409 0.0040064102564102561
446 410 -0.0033119658119658158
446 411 -2.0599841277224584e-18
446 442 -4.87890977618477e-19
446 443 0.02414529914529915
446 444 -4.3368086899420177e-19
446 445 -8.6736173798840355e-19
446 446 0.11196581196581197
447 208 -0.0020032051282051276
447 209 -0.003338675213675214
447 210 -0.0068376068376068376
447 211 3.2526065174565133e-19
447 212 -0.013354700854700851
447 213 -0.026388888888888878
447 214 0.0020032051282051272
447 215 -0.0033386752136752118
447 216 -0.0068376068376068315
447 247 -0.0080128205128205121
447 248 0
447 249 -0.024679487179487182
447 250 1.0842021724855044e-18
447 251 -8.6736173798840355e-19
447 252 -0.094871794871794854
447 253 0.0080128205128205104
447 254 -1.1926223897340549e-18
447 255 -0.024679487179487161
447 286 -0.0020032051282051276
447 287 0.003338675213675214
447 288 -0.0068376068376068385
447 289 2.7105054312137611e-19
447 290 0.013354700854700854
447 291 -0.026388888888888885
447 292 0.0020032051282051276
447 293 0.0033386752136752109
447 294 -0.0068376068376068324
447 403 -2.7105054312137611e-19
447 404 -2.0599841277224584e-18
447 405 0.010042735042735038
447 406 -8.6736173798840355e-19
447 407 3.4694469519536142e-18
447 408 0.044017094017093986
447 409 -1.0842021724855044e-19
447 410 -1.4094628242311558e-18
447 411 0.010042735042735031
447 442 -1.7347234759768071e-18
447 443 0
447 444 0.050854700854700854
447 445 -2.6020852139652106e-18
447 446 -1.3010426069826053e-17
447 447 0.21880341880341872
448 211 -0.0027866809116809097
448 212 -0.0010016025641025636
448 213 -0.0020032051282051272
448 214 -0.0077813390313390286
448 215 8.1315162936412833e-20
448 216 -5.4210108624275222e-20
448 217 -0.002786680911680911
448 218 0.0010016025641025636
448 219 0.0020032051282051272
448 250 -0.0084757834757834723
448 251 7.0473141211557788e-19
448 252 -0.0080128205128205104
448 253 -0.020441595441595441
448 254 -2.1684043449710089e-19
448 255 -2.1684043449710089e-19
448 256 -0.0084757834757834792
448 257 -5.1499603193061461e-19
448 258 0.0080128205128205121
448 289 -0.0027866809116809102
448 290 0.0010016025641025638
448 291 -0.0020032051282051276
448 292 -0.0077813390313390303
448 293 -1.3552527156068805e-19
448 294 0
448 295 -0.0027866809116809123
448 296 -0.0010016025641025638
448 297 0.0020032051282051276
448 406 -0.00046296296296296504
448 407 -0.0040064102564102561
448 408 1.0842021724855044e-19
448 409 0.011609686609686601
448 410 -5.4210108624275222e-20
448 411 -1.7347234759768071e-18
448 412 -0.00046296296296296266
448 413 0.0040064102564102561
448 414 9.2157184661267877e-19
448 445 0.0088319088319088156
448 446 1.463672932855431e-18
448 447 -1.0842021724855044e-19
448 448 0.089173789173789167
449 211 -0.0010016025641025636
449 212 -0.0034989316239316206
449 213 -0.0033386752136752109
449 214 8.1315162936412833e-20
449 215 -0.01303418803418803
449 216 -0.013354700854700852
449 217 0.0010016025641025636
449 218 -0.0034989316239316232
449 219 -0.0033386752136752135
449 250 5.9631119486702744e-19
449 251 -0.0046474358974358948
449 252 1.951563910473908e-18
449 253 -2.1684043449710089e-19
449 254 -0.014743589743589745
449 255 1.5178830414797062e-18
449 256 -5.1499603193061461e-19
449 257 -0.0046474358974359
449 258 2.2768245622195593e-18
449 289 0.0010016025641025638
449 290 -0.0034989316239316223
449 291 0.0033386752136752118
449 292 -1.8973538018496328e-19
449 293 -0.013034188034188033
449 294 0.013354700854700852
449 295 -0.0010016025641025638
449 296 -0.0034989316239316254
449 297 0.0033386752136752144
449 406 -0.0040064102564102561
449 407 -0.0033119658119658106
449 408 -1.1926223897340549e-18
449 409 0
449 410 -0.0094017094017094134
449 411 -3.4694469519536142e-18
449 412 0.0040064102564102561
449 413 -0.0033119658119658123
449 414 -1.951563910473908e-18
449 445 1.2468324983583301e-18
449 446 0.024145299145299129
449 447 4.3368086899420177e-19
449 448 4.3368086899420177e-19
449 449 0.11196581196581196
450 211 -0.0020032051282051276
450 212 -0.0033386752136752114
450 213 -0.0068376068376068298
450 214 -3.2526065174565133e-19
450 215 -0.013354700854700852
450 216 -0.026388888888888878
450 217 0.0020032051282051276
450 218 -0.0033386752136752135
450 219 -0.0068376068376068393
450 250 -0.0080128205128205121
450 251 3.2526065174565133e-18
450 252 -0.024679487179487161
450 253 -2.1684043449710089e-19
450 254 2.1684043449710089e-19
450 255 -0.094871794871794854
450 256 0.0080128205128205104
450 257 1.8431436932253575e-18
450 258 -0.024679487179487189
450 289 -0.0020032051282051276
450 290 0.0033386752136752114
450 291 -0.0068376068376068315
450 292 -5.4210108624275222e-20
450 293 0.013354700854700851
450 294 -0.026388888888888885
450 295 0.002003205128205128
450 296 0.0033386752136752157
450 297 -0.0068376068376068411
450 406 1.6263032587282567e-19
450 407 -2.2768245622195593e-18
450 408 0.010042735042735031
450 409 -1.7347234759768071e-18
450 410 -2.1684043449710089e-19
450 411 0.044017094017093986
450 412 7.589415207398531e-19
450 413 -2.1684043449710089e-18
450 414 0.010042735042735038
450 445 0
450 446 2.1684043449710089e-18
450 447 0.050854700854700813
450 448 -5.2041704279304213e-18
450 449 -6.9388939039072284e-18
450 450 0.21880341880341875
451 214 -0.0027866809116809097
451 215 -0.0010016025641025636
451 216 -0.0020032051282051267
451 217 -0.0077813390313390234
451 218 5.4210108624275222e-20
451 219 1.0842021724855044e-19
451 220 -0.002786680911680908
451 221 0.0010016025641025638
451 222 0.0020032051282051272
451 253 -0.0084757834757834705
451 254 -1.3552527156068805e-19
451 255 -0.0080128205128205086
451 256 -0.020441595441595427
451 257 -8.6736173798840355e-19
451 258 7.589415207398531e-19
451 259 -0.0084757834757834653
451 260 6.7762635780344027e-19
451 261 0.0080128205128205121
451 292 -0.0027866809116809102
451 293 0.0010016025641025636
451 294 -0.0020032051282051272
451 295 -0.0077813390313390251
451 296 -1.6263032587282567e-19
451 297 1.6263032587282567e-19
451 298 -0.0027866809116809067
451 299 -0.0010016025641025636
451 300 0.0020032051282051272
451 409 -0.00046296296296296428
451 410 -0.0040064102564102561
451 411 8.1315162936412833e-19
451 412 0.011609686609686597
451 413 -6.5052130349130266e-19
451 414 -4.3368086899420177e-19
451 415 -0.00046296296296297111
451 416 0.0040064102564102569
451 417 -1.0299920638612292e-18
451 448 0.0088319088319088329
451 449 -1.5178830414797062e-18
451 450 3.1441863002079629e-18
451 451 0.089173789173789125
452 214 -0.0010016025641025638
452 215 -0.0034989316239316228
452 216 -0.0033386752136752131
452 217 2.439454888092385e-19
452 218 -0.013034188034188023
452 219 -0.013354700854700847
452 220 0.0010016025641025638
452 221 -0.0034989316239316184
452 222 -0.0033386752136752083
452 253 -1.3552527156068805e-19
452 254 -0.0046474358974358931
452 255 -1.8431436932253575e-18
452 256 -1.0842021724855044e-18
452 257 -0.014743589743589736
452 258 -1.951563910473908e-18
452 259 6.7762635780344027e-19
452 260 -0.0046474358974358896
452 261 -5.0957502106818708e-18
452 292 0.0010016025641025636
452 293 -0.0034989316239316223
452 294 0.0033386752136752127
452 295 -2.7105054312137611e-19
452 296 -0.013034188034188026
452 297 0.013354700854700845
452 298 -0.0010016025641025636
452 299 -0.0034989316239316158
452 300 0.003338675213675207
452 409 -0.0040064102564102569
452 410 -0.0033119658119658175
452 411 2.8189256484623115e-18
452 412 -4.87890977618477e-19
452 413 -0.0094017094017094065
452 414 -2.8189256484623115e-18
452 415 0.0040064102564102561
452 416 -0.0033119658119658167
452 417 3.6862873864507151e-18
452 448 -1.6805133673525319e-18
452 449 0.02414529914529915
452 450 -3.0357660829594124e-18
452 451 -2.6020852139652106e-18
452 452 0.11196581196581191
453 214 -0.0020032051282051272
453 215 -0.0033386752136752135
453 216 -0.0068376068376068333
453 217 1.0842021724855044e-19
453 218 -0.013354700854700845
453 219 -0.026388888888888865
453 220 0.0020032051282051272
453 221 -0.0033386752136752083
453 222 -0.0068376068376068237
453 253 -0.0080128205128205104
453 254 -1.4094628242311558e-18
453 255 -0.024679487179487161
453 256 1.0842021724855044e-18
453 257 3.0357660829594124e-18
453 258 -0.094871794871794812
453 259 0.0080128205128205086
453 260 -3.903127820947816e-18
453 261 -0.02467948717948713
453 292 -0.0020032051282051272
453 293 0.0033386752136752131
453 294 -0.0068376068376068333
453 295 1.6263032587282567e-19
453 296 0.013354700854700845
453 297 -0.026388888888888868
453 298 0.0020032051282051272
453 299 0.0033386752136752079
453 300 -0.0068376068376068237
453 409 9.7578195523695399e-19
453 410 2.3852447794681098e-18
453 411 0.010042735042735037
453 412 -8.6736173798840355e-19
453 413 1.7347234759768071e-18
453 414 0.044017094017093972
453 415 -1.0842021724855044e-18
453 416 3.903127820947816e-18
453 417 0.010042735042735019
453 448 3.5778671692021646e-18
453 449 -2.6020852139652106e-18
453 450 0.050854700854700848
453 451 -8.6736173798840355e-19
453 452 -6.0715321659188248e-18
453 453 0.21880341880341864
454 217 -0.0027866809116809084
454 218 -0.0010016025641025634
454 219 -0.0020032051282051276
454 220 -0.0077813390313390234
454 221 -2.7105054312137611e-19
454 222 -3.2526065174565133e-19
454 223 -0.0027866809116809132
454 224 0.0010016025641025638
454 225 0.0020032051282051276
454 256 -0.0084757834757834705
454 257 1.0842021724855044e-18
454 258 -0.0080128205128205121
454 259 -0.020441595441595423
454 260 -1.7347234759768071e-18
454 261 -2.1684043449710089e-19
454 262 -0.0084757834757834827
454 263 5.4210108624275222e-19
454 264 0.0080128205128205121
454 295 -0.0027866809116809097
454 296 0.001001602564102564
454 297 -0.0020032051282051276
454 298 -0.0077813390313390251
454 299 -4.87890977618477e-19
454 300 -1.0842021724855044e-19
454 301 -0.0027866809116809128
454 302 -0.0010016025641025636
454 303 0.002003205128205128
454 412 -0.00046296296296296759
454 413 -0.0040064102564102552
454 414 -8.1315162936412833e-19
454 415 0.011609686609686597
454 416 -1.5178830414797062e-18
454 417 -2.6020852139652106e-18
454 418 -0.00046296296296296629
454 419 0.0040064102564102569
454 420 2.1141942363467336e-18
454 451 0.0088319088319087913
454 452 3.5236570605778894e-18
454 453 -4.1199682554449168e-18
454 454 0.089173789173789139
455 217 -0.0010016025641025634
455 218 -0.0034989316239316167
455 219 -0.003338675213675207
455 220 -3.5236570605778894e-19
455 221 -0.013034188034188023
455 222 -0.013354700854700845
455 223 0.0010016025641025638
455 224 -0.0034989316239316254
455 225 -0.0033386752136752153
455 256 1.1384122811097797e-18
455 257 -0.0046474358974358948
455 258 4.2283884726934673e-18
455 259 -1.7347234759768071e-18
455 260 -0.014743589743589733
455 261 4.1199682554449168e-18
455 262 5.6920614055488983e-19
455 263 -0.0046474358974359052
455 264 -1.8431436932253575e-18
455 295 0.0010016025641025638
455 296 -0.0034989316239316206
455 297 0.0033386752136752101
455 298 -5.4210108624275222e-19
455 299 -0.013034188034188024
455 300 0.013354700854700842
455 301 -0.0010016025641025636
455 302 -0.0034989316239316249
455 303 0.0033386752136752135
455 412 -0.0040064102564102543
455 413 -0.0033119658119658041
455 414 2.1684043449710089e-19
455 415 -1.7347234759768071e-18
455 416 -0.0094017094017094082
455 417 -4.5536491244391186e-18
455 418 0.0040064102564102569
455 419 -0.0033119658119658201
455 420 -9.6493993351209895e-18
455 451 3.8489177123235407e-18
455 452 0.024145299145299101
455 453 -8.2399365108898337e-18
455 454 -6.0715321659188248e-18
455 455 0.1119658119658119
456 217 -0.0020032051282051276
456 218 -0.003338675213675207
456 219 -0.0068376068376068289
456 220 -3.2526065174565133e-19
456 221 -0.013354700854700847
456 222 -0.026388888888888865
456 223 0.0020032051282051276
456 224 -0.0033386752136752157
456 225 -0.0068376068376068419
456 256 -0.0080128205128205104
456 257 5.3125906451789717e-18
456 258 -0.024679487179487151
456 259 -8.6736173798840355e-19
456 260 3.903127820947816e-18
456 261 -0.094871794871794785
456 262 0.0080128205128205121
456 263 -1.6263032587282567e-18
456 264 -0.024679487179487203
456 295 -0.0020032051282051276
456 296 0.0033386752136752101
456 297 -0.0068376068376068307
456 298 -2.7105054312137611e-19
456 299 0.013354700854700842
456 300 -0.026388888888888871
456 301 0.0020032051282051285
456 302 0.0033386752136752131
456 303 -0.0068376068376068437
456 412 -7.0473141211557788e-19
456 413 -1.0842021724855044e-18
456 414 0.010042735042735024
456 415 -2.6020852139652106e-18
456 416 -8.0230960763927328e-18
456 417 0.044017094017093958
456 418 2.2226144535952841e-18
456 419 -1.0191500421363742e-17
456 420 0.010042735042735035
456 451 -3.3610267347050637e-18
456 452 -6.0715321659188248e-18
456 453 0.050854700854700757
456 454 -7.8062556418956319e-18
456 455 8.6736173798840355e-18
456 456 0.21880341880341858
457 220 -0.0027866809116809071
457 221 -0.0010016025641025636
457 222 -0.0020032051282051263
457 223 -0.0077813390313390312
457 224 3.5236570605778894e-19
457 225 0
457 226 -0.0027866809116809084
457 227 0.0010016025641025636
457 228 0.0020032051282051267
457 259 -0.0084757834757834636
457 260 1.0570971181733668e-18
457 261 -0.0080128205128205086
457 262 -0.020441595441595451
457 263 0
457 264 2.1684043449710089e-19
457 265 -0.0084757834757834688
457 266 -9.7578195523695399e-19
457 267 0.0080128205128205086
457 298 -0.0027866809116809093
457 299 0.001001602564102564
457 300 -0.0020032051282051272
457 301 -0.0077813390313390338
457 302 -5.4210108624275222e-20
457 303 1.6263032587282567e-19
457 304 -0.0027866809116809102
457 305 -0.0010016025641025642
457 306 0.0020032051282051272
457 415 -0.0004629629629629632
457 416 -0.0040064102564102552
457 417 2.3852447794681098e-18
457 418 0.011609686609686601
457 419 2.7105054312137611e-19
457 420 -1.3010426069826053e-18
457 421 -0.00046296296296296114
457 422 0.0040064102564102561
457 423 -1.8973538018496328e-18
457 454 0.0088319088319088294
457 455 3.0357660829594124e-18
457 456 9.4325589006238886e-18
457 457 0.089173789173789181
458 220 -0.0010016025641025636
458 221 -0.0034989316239316184
458 222 -0.0033386752136752114
458 223 2.439454888092385e-19
458 224 -0.013034188034188033
458 225 -0.013354700854700852
458 226 0.0010016025641025636
458 227 -0.003498931623931621
458 228 -0.0033386752136752118
458 259 1.0570971181733668e-18
458 260 -0.0046474358974358861
458 261 6.613633252161577e-18
458 262 -2.1684043449710089e-19
458 263 -0.014743589743589748
458 264 -3.0357660829594124e-18
458 265 -8.4025668367626594e-19
458 266 -0.0046474358974358913
458 267 4.0115480381963664e-18
458 298 0.0010016025641025638
458 299 -0.0034989316239316219
458 300 0.0033386752136752122
458 301 -2.7105054312137611e-20
458 302 -0.013034188034188036
458 303 0.013354700854700863
458 304 -0.001001602564102564
458 305 -0.0034989316239316245
458 306 0.0033386752136752144
458 415 -0.0040064102564102561
458 416 -0.0033119658119658102
458 417 4.3368086899420177e-19
458 418 5.4210108624275222e-20
458 419 -0.0094017094017094203
458 420 9.3241386833753381e-18
458 421 0.0040064102564102561
458 422 -0.0033119658119658097
458 423 5.7462715141731735e-18
458 454 3.1983964088322381e-18
458 455 0.024145299145299143
458 456 6.9388939039072284e-18
458 457 -8.6736173798840355e-19
458 458 0.11196581196581198
459 220 -0.0020032051282051267
459 221 -0.0033386752136752109
459 222 -0.0068376068376068255
459 223 -3.2526065174565133e-19
459 224 -0.013354700854700854
459 225 -0.026388888888888885
459 226 0.0020032051282051272
459 227 -0.0033386752136752114
459 228 -0.0068376068376068307
459 259 -0.0080128205128205086
459 260 4.87890977618477e-18
459 261 -0.02467948717948714
459 262 3.2526065174565133e-19
459 263 -4.7704895589362195e-18
459 264 -0.094871794871794896
459 265 0.0080128205128205086
459 266 3.4694469519536142e-18
459 267 -0.024679487179487161
459 298 -0.0020032051282051267
459 299 0.0033386752136752122
459 300 -0.0068376068376068272
459 301 1.6263032587282567e-19
459 302 0.013354700854700861
459 303 -0.026388888888888896
459 304 0.0020032051282051272
459 305 0.0033386752136752148
459 306 -0.0068376068376068333
459 415 2.4936649967166602e-18
459 416 3.5778671692021646e-18
459 417 0.010042735042735038
459 418 -1.3010426069826053e-18
459 419 1.1058862159352145e-17
459 420 0.044017094017093999
459 421 -1.7347234759768071e-18
459 422 8.3483567281383841e-18
459 423 0.010042735042735042
459 454 9.6493993351209895e-18
459 455 2.6020852139652106e-18
459 456 0.050854700854700827
459 457 -6.9388939039072284e-18
459 458 -2.7755575615628914e-17
459 459 0.21880341880341878
460 223 -0.0027866809116809136
460 224 -0.0010016025641025638
460 225 -0.002003205128205128
460 226 -0.0077813390313390251
460 227 4.0657581468206416e-19
460 228 3.7947076036992655e-19
460 229 -0.002786680911680908
460 230 0.0010016025641025636
460 231 0.0020032051282051272
460 262 -0.0084757834757834809
460 263 -4.6078592330633938e-19
460 264 -0.0080128205128205121
460 265 -0.020441595441595434
460 266 6.5052130349130266e-19
460 267 3.6862873864507151e-18
460 268 -0.0084757834757834671
460 269 -1.0842021724855044e-19
460 270 0.0080128205128205121
460 301 -0.0027866809116809132
460 302 0.0010016025641025636
460 303 -0.002003205128205128
460 304 -0.0077813390313390286
460 305 0
460 306 9.7578195523695399e-19
460 307 -0.0027866809116809084
460 308 -0.0010016025641025638
460 309 0.002003205128205128
460 418 -0.00046296296296296477
460 419 -0.0040064102564102569
460 420 -1.6263032587282567e-18
460 421 0.011609686609686597
460 422 8.6736173798840355e-19
460 423 1.7347234759768071e-18
460 424 -0.00046296296296296905
460 425 0.0040064102564102561
460 426 -5.9631119486702744e-19
460 457 0.0088319088319088381
460 458 -2.8189256484623115e-18
460 459 -6.9388939039072284e-18
460 460 0.089173789173789153
461 223 -0.001001602564102564
461 224 -0.0034989316239316271
461 225 -0.0033386752136752157
461 226 4.3368086899420177e-19
461 227 -0.013034188034188026
461 228 -0.013354700854700851
461 229 0.0010016025641025636
461 230 -0.0034989316239316184
461 231 -0.0033386752136752088
461 262 -5.1499603193061461e-19
461 263 -0.0046474358974359052
461 264 -5.4210108624275222e-18
461 265 2.1684043449710089e-19
461 266 -0.014743589743589742
461 267 5.6378512969246231e-18
461 268 -1.6263032587282567e-19
461 269 -0.0046474358974358913
461 270 6.5052130349130266e-19
461 301 0.0010016025641025636
461 302 -0.0034989316239316249
461 303 0.0033386752136752148
461 304 5.4210108624275222e-20
461 305 -0.01303418803418803
461 306 0.013354700854700845
461 307 -0.0010016025641025638
461 308 -0.0034989316239316193
461 309 0.0033386752136752088
461 418 -0.0040064102564102569
461 419 -0.003311965811965821
461 420 -9.7578195523695399e-19
461 421 1.0842021724855044e-18
461 422 -0.0094017094017094117
461 423 -1.0842021724855044e-17
461 424 0.0040064102564102561
461 425 -0.0033119658119658123
461 426 8.6736173798840355e-19
461 457 -3.2526065174565133e-18
461 458 0.024145299145299153
461 459 -9.540979117872439e-18
461 460 3.0357660829594124e-18
461 461 0.11196581196581193
462 223 -0.0020032051282051276
462 224 -0.0033386752136752166
462 225 -0.0068376068376068437
462 226 5.9631119486702744e-19
462 227 -0.013354700854700851
462 228 -0.026388888888888871
462 229 0.0020032051282051272
462 230 -0.0033386752136752092
462 231 -0.0068376068376068255
462 262 -0.0080128205128205121
462 263 -3.903127820947816e-18
462 264 -0.02467948717948721
462 265 3.6862873864507151e-18
462 266 8.0230960763927328e-18
462 267 -0.09487179487179484
462 268 0.0080128205128205086
462 269 1.8431436932253575e-18
462 270 -0.02467948717948714
462 301 -0.002003205128205128
462 302 0.003338675213675214
462 303 -0.0068376068376068445
462 304 7.589415207398531e-19
462 305 0.013354700854700849
462 306 -0.026388888888888878
462 307 0.0020032051282051276
462 308 0.0033386752136752083
462 309 -0.0068376068376068281
462 418 -1.7889335846010823e-18
462 419 -2.3852447794681098e-18
462 420 0.010042735042735038
462 421 1.7347234759768071e-18
462 422 -1.0842021724855044e-17
462 423 0.044017094017093979
462 424 -7.0473141211557788e-19
462 425 -2.1684043449710089e-18
462 426 0.010042735042735023
462 457 -6.613633252161577e-18
462 458 -4.7704895589362195e-18
462 459 0.050854700854700861
462 460 6.0715321659188248e-18
462 461 1.8214596497756474e-17
462 462 0.21880341880341872
463 226 -0.0027866809116809093
463 227 -0.0010016025641025638
463 228 -0.0020032051282051276
463 229 -0.007781339031339026
463 230 4.87890977618477e-19
463 231 1.0842021724855044e-18
463 232 -0.0027866809116809076
463 233 0.0010016025641025634
463 234 0.0020032051282051267
463 265 -0.0084757834757834705
463 266 8.1315162936412833e-20
463 267 -0.0080128205128205121
463 268 -0.020441595441595434
463 269 6.5052130349130266e-19
463 270 3.903127820947816e-18
463 271 -0.0084757834757834653
463 272 -1.0842021724855044e-18
463 273 0.0080128205128205086
463 304 -0.0027866809116809093
463 305 0.001001602564102564
463 306 -0.0020032051282051276
463 307 -0.0077813390313390286
463 308 1.0842021724855044e-19
463 309 1.0299920638612292e-18
463 310 -0.0027866809116809093
463 311 -0.0010016025641025642
463 312 0.0020032051282051272
463 421 -0.00046296296296296905
463 422 -0.0040064102564102561
463 423 -4.3368086899420177e-19
463 424 0.011609686609686599
463 425 1.1384122811097797e-18
463 426 2.1684043449710089e-18
463 427 -0.0004629629629629606
463 428 0.0040064102564102561
463 429 -3.1441863002079629e-18
463 460 0.0088319088319087947
463 461 -5.4210108624275222e-20
463 462 -1.6263032587282567e-18
463 463 0.089173789173789153
464 226 -0.0010016025641025638
464 227 -0.0034989316239316193
464 228 -0.0033386752136752096
464 229 4.6078592330633938e-19
464 230 -0.013034188034188026
464 231 -0.013354700854700849
464 232 0.0010016025641025634
464 233 -0.0034989316239316197
464 234 -0.0033386752136752118
464 265 1.8973538018496328e-19
464 266 -0.0046474358974358948
464 267 1.951563910473908e-18
464 268 6.5052130349130266e-19
464 269 -0.01474358974358974
464 270 1.5178830414797062e-18
464 271 -1.0028870095490916e-18
464 272 -0.004647435897435887
464 273 5.9631119486702744e-18
464 304 0.0010016025641025638
464 305 -0.0034989316239316202
464 306 0.0033386752136752088
464 307 2.1684043449710089e-19
464 308 -0.01303418803418803
464 309 0.013354700854700856
464 310 -0.0010016025641025642
464 311 -0.0034989316239316241
464 312 0.0033386752136752148
464 421 -0.0040064102564102569
464 422 -0.0033119658119658123
464 423 -4.0115480381963664e-18
464 424 8.6736173798840355e-19
464 425 -0.0094017094017094134
464 426 4.7704895589362195e-18
464 427 0.0040064102564102561
464 428 -0.0033119658119658097
464 429 8.4567769453869346e-18
464 460 -1.6263032587282567e-19
464 461 0.024145299145299105
464 462 3.4694469519536142e-18
464 463 3.4694469519536142e-18
464 464 0.11196581196581196
465 226 -0.0020032051282051276
465 227 -0.0033386752136752092
465 228 -0.0068376068376068289
465 229 8.1315162936412833e-19
465 230 -0.013354700854700847
465 231 -0.026388888888888871
465 232 0.0020032051282051267
465 233 -0.0033386752136752122
465 234 -0.0068376068376068281
465 265 -0.0080128205128205121
465 266 4.3368086899420177e-19
465 267 -0.024679487179487154
465 268 4.2283884726934673e-18
465 269 -2.1684043449710089e-19
465 270 -0.09487179487179484
465 271 0.0080128205128205069
465 272 4.6620693416876691e-18
465 273 -0.024679487179487147
465 304 -0.002003205128205128
465 305 0.0033386752136752088
465 306 -0.0068376068376068307
465 307 9.2157184661267877e-19
465 308 0.013354700854700852
465 309 -0.026388888888888878
465 310 0.0020032051282051272
465 311 0.003338675213675214
465 312 -0.0068376068376068324
465 421 -3.2526065174565133e-19
465 422 -2.2768245622195593e-18
465 423 0.010042735042735021
465 424 2.1684043449710089e-18
465 425 8.6736173798840355e-18
465 426 0.044017094017093986
465 427 -2.8731357570865868e-18
465 428 8.6736173798840355e-18
465 429 0.010042735042735042
465 460 -2.1684043449710089e-18
465 461 -1.3010426069826053e-18
465 462 0.050854700854700764
465 463 8.6736173798840355e-18
465 464 -2.3418766925686896e-17
465 465 0.21880341880341869
466 229 -0.0027866809116809145
466 230 -0.001001602564102564
466 231 -0.002003205128205128
466 232 -0.0038906695156695169
466 233 -0.00020032051282051233
466 234 -0.00040064102564102487
466 268 -0.0084757834757834861
466 269 -6.2341624917916505e-19
466 270 -0.0080128205128205121
466 271 -0.010220797720797731
466 272 6.5052130349130266e-19
466 273 -0.001602564102564099
466 307 -0.0027866809116809141
466 308 0.0010016025641025636
466 309 -0.0020032051282051285
466 310 -0.0038906695156695195
466 311 0.00020032051282051298
466 312 -0.00040064102564102449
466 424 -0.00046296296296296439
466 425 -0.0040064102564102569
466 426 -2.6020852139652106e-18
466 427 0.0058048433048433004
466 428 -0.00080128205128205039
466 429 3.0357660829594124e-18
466 463 0.0088319088319088433
466 464 -3.6862873864507151e-18
466 465 -1.0950441942103595e-17
466 466 0.044586894586894604
467 229 -0.001001602564102564
467 230 -0.0034989316239316288
467 231 -0.0033386752136752179
467 232 0.00020032051282051311
467 233 -0.0065170940170940191
467 234 -0.0066773504273504314
467 268 -6.2341624917916505e-19
467 269 -0.0046474358974359087
467 270 -4.0115480381963664e-18
467 271 6.5052130349130266e-19
467 272 -0.0073717948717948768
467 273 0
467 307 0.0010016025641025636
467 308 -0.0034989316239316267
467 309 0.0033386752136752153
467 310 -0.00020032051282051252
467 311 -0.0065170940170940226
467 312 0.0066773504273504296
467 424 -0.0040064102564102578
467 425 -0.0033119658119658232
467 426 -5.3125906451789717e-18
467 427 0.00080128205128205234
467 428 -0.0047008547008547136
467 429 4.5536491244391186e-18
467 463 -3.5778671692021646e-18
467 464 0.02414529914529916
467 465 -3.903127820947816e-18
467 466 3.4694469519536142e-18
467 467 0.05598290598290602
468 229 -0.002003205128205128
468 230 -0.0033386752136752179
468 231 -0.006837606837606848
468 232 0.00040064102564102612
468 233 -0.0066773504273504323
468 234 -0.013194444444444448
468 268 -0.0080128205128205138
468 269 -4.1199682554449168e-18
468 270 -0.024679487179487224
468 271 0.0016025641025641055
468 272 2.3852447794681098e-18
468 273 -0.047435897435897462
468 307 -0.0020032051282051285
468 308 0.0033386752136752148
468 309 -0.0068376068376068497
468 310 0.00040064102564102644
468 311 0.0066773504273504314
468 312 -0.013194444444444451
468 424 -2.8731357570865868e-18
468 425 -5.5294310796760726e-18
468 426 0.01004273504273504
468 427 2.6020852139652106e-18
468 428 1.0842021724855044e-18
468 429 0.022008547008547007
468 463 -1.1275702593849246e-17
468 464 -4.3368086899420177e-18
468 465 0.050854700854700861
468 466 9.540979117872439e-18
468 467 -3.4694469519536142e-18
468 468 0.10940170940170944
469 235 -0.0038906695156695121
469 236 0.00020032051282051279
469 237 0.00040064102564102557
469 238 -0.0027866809116809102
469 239 0.0010016025641025636
469 240 0.0020032051282051276
469 274 -0.01022079772079772
469 275 -4.3368086899420177e-19
469 276 0.0016025641025641029
469 277 -0.0084757834757834757
469 278 -2.1684043449710089e-19
469 279 0.0080128205128205121
469 313 -0.0038906695156695147
469 314 -0.00020032051282051281
469 315 0.00040064102564102541
469 316 -0.0027866809116809115
469 317 -0.0010016025641025638
469 318 0.0020032051282051285
469 430 0.0058048433048433004
469 431 0.00080128205128205125
469 432 -1.3010426069826053e-18
469 433 -0.0004629629629629658
469 434 0.0040064102564102561
469 435 -4.87890977618477e-19
469 469 0.044586894586894577
470 235 -0.00020032051282051265
470 236 -0.0065170940170940122
470 237 -0.0066773504273504227
470 238 0.0010016025641025636
470 239 -0.0034989316239316206
470 240 -0.0033386752136752114
470 274 -4.3368086899420177e-19
470 275 -0.0073717948717948734
470 276 0
470 277 -2.1684043449710089e-19
470 278 -0.0046474358974358983
470 279 -2.1684043449710089e-19
470 313 0.00020032051282051271
470 314 -0.0065170940170940148
470 315 0.0066773504273504244
470 316 -0.0010016025641025638
470 317 -0.0034989316239316228
470 318 0.0033386752136752122
470 430 -0.00080128205128205125
470 431 -0.004700854700854705
470 432 0
470 433 0.0040064102564102561
470 434 -0.0033119658119658132
470 435 1.0842021724855044e-19
470 469 -1.3010426069826053e-18
470 470 0.055982905982905971
471 235 -0.00040064102564102519
471 236 -0.0066773504273504227
471 237 -0.013194444444444434
471 238 0.0020032051282051272
471 239 -0.0033386752136752114
471 240 -0.0068376068376068315
471 274 -0.0016025641025641023
471 275 -2.1684043449710089e-19
471 276 -0.04743589743589742
471 277 0.0080128205128205121
471 278 1.0842021724855044e-19
471 279 -0.024679487179487168
471 313 -0.00040064102564102595
471 314 0.0066773504273504244
471 315 -0.013194444444444441
471 316 0.0020032051282051285
471 317 0.0033386752136752118
471 318 -0.0068376068376068367
471 430 -8.6736173798840355e-19
471 431 1.0842021724855044e-18
471 432 0.022008547008546986
471 433 -4.87890977618477e-19
471 434 3.2526065174565133e-19
471 435 0.010042735042735031
471 469 0
471 470 8.6736173798840355e-19
471 471 0.10940170940170936
472 235 -0.0027866809116809097
472 236 -0.0010016025641025638
472 237 -0.0020032051282051276
472 238 -0.0077813390313390268
472 239 1.8973538018496328e-19
472 240 3.7947076036992655e-19
472 241 -0.0027866809116809102
472 242 0.0010016025641025636
472 243 0.0020032051282051276
472 274 -0.0084757834757834757
472 275 2.7105054312137611e-19
472 276 -0.0080128205128205121
472 277 -0.020441595441595441
472 278 -6.5052130349130266e-19
472 279 1.1926223897340549e-18
472 280 -0.0084757834757834775
472 281 -1.6263032587282567e-19
472 282 0.0080128205128205121
472 313 -0.0027866809116809106
472 314 0.0010016025641025638
472 315 -0.0020032051282051285
472 316 -0.0077813390313390303
472 317 -5.4210108624275222e-20
472 318 1.6263032587282567e-19
472 319 -0.0027866809116809123
472 320 -0.0010016025641025638
472 321 0.002003205128205128
472 430 -0.00046296296296296596
472 431 -0.0040064102564102561
472 432 4.3368086899420177e-19
472 433 0.011609686609686601
472 434 -1.6263032587282567e-19
472 435 -2.1684043449710089e-18
472 436 -0.00046296296296296569
472 437 0.0040064102564102561
472 438 -1.6263032587282567e-19
472 469 0.0088319088319088173
472 470 -1.6263032587282567e-19
472 471 -4.3368086899420177e-19
472 472 0.089173789173789167
473 235 -0.0010016025641025636
473 236 -0.003498931623931621
473 237 -0.0033386752136752118
473 238 1.8973538018496328e-19
473 239 -0.013034188034188026
473 240 -0.013354700854700849
473 241 0.0010016025641025636
473 242 -0.0034989316239316215
473 243 -0.0033386752136752118
473 274 2.7105054312137611e-19
473 275 -0.0046474358974358983
473 276 -3.2526065174565133e-19
473 277 -4.3368086899420177e-19
473 278 -0.01474358974358975
473 279 1.3010426069826053e-18
473 280 -1.8973538018496328e-19
473 281 -0.0046474358974359009
473 282 1.0842021724855044e-19
473 313 0.0010016025641025638
473 314 -0.0034989316239316223
473 315 0.0033386752136752118
473 316 -2.7105054312137611e-20
473 317 -0.013034188034188031
473 318 0.013354700854700851
473 319 -0.0010016025641025638
473 320 -0.0034989316239316232
473 321 0.0033386752136752127
473 430 -0.0040064102564102561
473 431 -0.0033119658119658136
473 432 1.0842021724855044e-19
473 433 -1.6263032587282567e-19
473 434 -0.0094017094017094117
473 435 2.3852447794681098e-18
473 436 0.0040064102564102561
473 437 -0.0033119658119658141
473 438 -1.1926223897340549e-18
473 469 -1.0842021724855044e-19
473 470 0.024145299145299129
473 471 -1.3010426069826053e-18
473 472 0
473 473 0.11196581196581193
474 235 -0.0020032051282051272
474 236 -0.0033386752136752114
474 237 -0.0068376068376068307
474 238 2.1684043449710089e-19
474 239 -0.013354700854700849
474 240 -0.026388888888888871
474 241 0.0020032051282051276
474 242 -0.0033386752136752122
474 243 -0.0068376068376068333
474 274 -0.0080128205128205138
474 275 -1.0842021724855044e-19
474 276 -0.024679487179487168
474 277 1.5178830414797062e-18
474 278 -2.1684043449710089e-19
474 279 -0.094871794871794854
474 280 0.0080128205128205121
474 281 2.1684043449710089e-19
474 282 -0.024679487179487175
474 313 -0.0020032051282051289
474 314 0.0033386752136752118
474 315 -0.0068376068376068367
474 316 0
474 317 0.013354700854700851
474 318 -0.026388888888888885
474 319 0.002003205128205128
474 320 0.0033386752136752127
474 321 -0.0068376068376068402
474 430 3.7947076036992655e-19
474 431 1.0842021724855044e-19
474 432 0.010042735042735031
474 433 -1.7347234759768071e-18
474 434 2.3852447794681098e-18
474 435 0.044017094017093979
474 436 5.4210108624275222e-20
474 437 -1.1926223897340549e-18
474 438 0.010042735042735033
474 469 -4.3368086899420177e-19
474 470 -1.3010426069826053e-18
474 471 0.050854700854700827
474 472 -6.0715321659188248e-18
474 473 -1.3010426069826053e-17
474 474 0.21880341880341875
475 238 -0.0027866809116809093
475 239 -0.0010016025641025638
475 240 -0.0020032051282051276
475 241 -0.0077813390313390268
475 242 2.7105054312137611e-19
475 243 4.87890977618477e-19
475 244 -0.0027866809116809097
475 245 0.0010016025641025636
475 246 0.0020032051282051276
475 277 -0.0084757834757834723
475 278 3.2526065174565133e-19
475 279 -0.0080128205128205121
475 280 -0.020441595441595444
475 281 -2.1684043449710089e-19
475 282 7.589415207398531e-19
475 283 -0.0084757834757834757
475 284 -2.7105054312137611e-19
475 285 0.0080128205128205121
475 316 -0.0027866809116809106
475 317 0.0010016025641025638
475 318 -0.002003205128205128
475 319 -0.007781339031339032
475 320 -8.1315162936412833e-20
475 321 3.2526065174565133e-19
475 322 -0.0027866809116809115
475 323 -0.001001602564102564
475 324 0.002003205128205128
475 433 -0.00046296296296296558
475 434 -0.0040064102564102561
475 435 1.1926223897340549e-18
475 436 0.011609686609686599
475 437 3.7947076036992655e-19
475 438 -1.7347234759768071e-18
475 439 -0.0004629629629629652
475 440 0.0040064102564102561
475 441 -7.589415207398531e-19
475 472 0.008831908831908819
475 473 -1.0842021724855044e-19
475 474 2.4936649967166602e-18
475 475 0.089173789173789153
476 238 -0.0010016025641025636
476 239 -0.0034989316239316206
476 240 -0.0033386752136752114
476 241 1.8973538018496328e-19
476 242 -0.013034188034188026
476 243 -0.013354700854700849
476 244 0.0010016025641025638
476 245 -0.003498931623931621
476 246 -0.0033386752136752122
476 277 2.7105054312137611e-19
476 278 -0.0046474358974358965
476 279 7.589415207398531e-19
476 280 0
476 281 -0.014743589743589752
476 282 1.0842021724855044e-18
476 283 -2.439454888092385e-19
476 284 -0.0046474358974358974
476 285 9.7578195523695399e-19
476 316 0.0010016025641025636
476 317 -0.0034989316239316219
476 318 0.0033386752136752109
476 319 -5.4210108624275222e-20
476 320 -0.013034188034188033
476 321 0.013354700854700852
476 322 -0.0010016025641025638
476 323 -0.0034989316239316232
476 324 0.0033386752136752127
476 433 -0.0040064102564102561
476 434 -0.0033119658119658132
476 435 1.7347234759768071e-18
476 436 0
476 437 -0.0094017094017094151
476 438 -2.1684043449710089e-19
476 439 0.0040064102564102561
476 440 -0.0033119658119658136
476 441 0
476 472 1.6263032587282567e-19
476 473 0.024145299145299132
476 474 -2.6020852139652106e-18
476 475 -4.3368086899420177e-19
476 476 0.11196581196581196
477 238 -0.0020032051282051272
477 239 -0.0033386752136752118
477 240 -0.0068376068376068289
477 241 3.2526065174565133e-19
477 242 -0.013354700854700849
477 243 -0.026388888888888875
477 244 0.0020032051282051272
477 245 -0.0033386752136752122
477 246 -0.0068376068376068315
477 277 -0.0080128205128205121
477 278 8.6736173798840355e-19
477 279 -0.024679487179487165
477 280 5.4210108624275222e-19
477 281 -4.3368086899420177e-19
477 282 -0.094871794871794868
477 283 0.0080128205128205121
477 284 1.3010426069826053e-18
477 285 -0.024679487179487168
477 316 -0.002003205128205128
477 317 0.0033386752136752118
477 318 -0.006837606837606835
477 319 0
477 320 0.013354700854700852
477 321 -0.026388888888888892
477 322 0.002003205128205128
477 323 0.0033386752136752127
477 324 -0.0068376068376068385
477 433 9.2157184661267877e-19
477 434 1.3010426069826053e-18
477 435 0.010042735042735033
477 436 -1.3010426069826053e-18
477 437 8.6736173798840355e-19
477 438 0.044017094017093986
477 439 -4.87890977618477e-19
477 440 4.3368086899420177e-19
477 441 0.010042735042735033
477 472 1.8431436932253575e-18
477 473 -2.1684043449710089e-18
477 474 0.050854700854700841
477 475 -1.7347234759768071e-18
477 476 -7.8062556418956319e-18
477 477 0.2188034188034188
478 241 -0.0027866809116809097
478 242 -0.0010016025641025638
478 243 -0.0020032051282051276
478 244 -0.0077813390313390251
478 245 2.1684043449710089e-19
478 246 4.3368086899420177e-19
478 247 -0.0027866809116809097
478 248 0.0010016025641025636
478 249 0.0020032051282051276
478 280 -0.0084757834757834757
478 281 1.8973538018496328e-19
478 282 -0.0080128205128205121
478 283 -0.020441595441595441
478 284 -4.3368086899420177e-19
478 285 3.2526065174565133e-19
478 286 -0.0084757834757834757
478 287 -2.1684043449710089e-19
478 288 0.0080128205128205121
478 319 -0.0027866809116809119
478 320 0.0010016025641025638
478 321 -0.0020032051282051289
478 322 -0.0077813390313390303
478 323 1.3552527156068805e-19
478 324 -2.1684043449710089e-19
478 325 -0.002786680911680911
478 326 -0.0010016025641025636
478 327 0.002003205128205128
478 436 -0.00046296296296296547
478 437 -0.0040064102564102561
478 438 3.2526065174565133e-19
478 439 0.011609686609686599
478 440 3.7947076036992655e-19
478 441 -1.7347234759768071e-18
478 442 -0.00046296296296296661
478 443 0.0040064102564102561
478 444 -1.6263032587282567e-19
478 475 0.0088319088319088242
478 476 -2.7105054312137611e-19
478 477 -3.2526065174565133e-19
478 478 0.089173789173789153
479 241 -0.0010016025641025638
479 242 -0.0034989316239316219
479 243 -0.0033386752136752127
479 244 3.2526065174565133e-19
479 245 -0.013034188034188023
479 246 -0.013354700854700847
479 247 0.0010016025641025638
479 248 -0.0034989316239316206
479 249 -0.0033386752136752109
479 280 1.6263032587282567e-19
479 281 -0.0046474358974358991
479 282 0
479 283 -4.3368086899420177e-19
479 284 -0.014743589743589748
479 285 6.5052130349130266e-19
479 286 -8.1315162936412833e-20
479 287 -0.0046474358974358983
479 288 2.1684043449710089e-19
479 319 0.0010016025641025638
479 320 -0.0034989316239316232
479 321 0.0033386752136752127
479 322 1.3552527156068805e-19
479 323 -0.01303418803418803
479 324 0.013354700854700849
479 325 -0.0010016025641025638
479 326 -0.0034989316239316223
479 327 0.0033386752136752114
479 436 -0.0040064102564102561
479 437 -0.0033119658119658145
479 438 -1.0842021724855044e-18
479 439 4.87890977618477e-19
479 440 -0.0094017094017094099
479 441 2.1684043449710089e-19
479 442 0.0040064102564102561
479 443 -0.0033119658119658132
479 444 -8.6736173798840355e-19
479 475 -3.2526065174565133e-19
479 476 0.024145299145299136
479 477 -1.3010426069826053e-18
479 478 -1.7347234759768071e-18
479 479 0.11196581196581194
480 241 -0.0020032051282051272
480 242 -0.0033386752136752127
480 243 -0.0068376068376068333
480 244 3.7947076036992655e-19
480 245 -0.013354700854700849
480 246 -0.026388888888888868
480 247 0.0020032051282051276
480 248 -0.0033386752136752114
480 249 -0.0068376068376068307
480 280 -0.0080128205128205121
480 281 3.2526065174565133e-19
480 282 -0.024679487179487175
480 283 6.5052130349130266e-19
480 284 8.6736173798840355e-19
480 285 -0.094871794871794868
480 286 0.0080128205128205121
480 287 4.3368086899420177e-19
480 288 -0.024679487179487168
480 319 -0.0020032051282051289
480 320 0.0033386752136752127
480 321 -0.0068376068376068385
480 322 -2.1684043449710089e-19
480 323 0.013354700854700849
480 324 -0.026388888888888889
480 325 0.002003205128205128
480 326 0.0033386752136752114
480 327 -0.0068376068376068359
480 436 5.4210108624275222e-20
480 437 -7.589415207398531e-19
480 438 0.010042735042735033
480 439 -1.3010426069826053e-18
480 440 1.5178830414797062e-18
480 441 0.044017094017093972
480 442 -5.4210108624275222e-20
480 443 -1.4094628242311558e-18
480 444 0.01004273504273503
480 475 -9.7578195523695399e-19
480 476 -2.1684043449710089e-18
480 477 0.050854700854700841
480 478 -8.6736173798840355e-19
480 479 -7.8062556418956319e-18
480 480 0.21880341880341872
481 244 -0.0027866809116809089
481 245 -0.0010016025641025636
481 246 -0.0020032051282051276
481 247 -0.0077813390313390268
481 248 1.6263032587282567e-19
481 249 4.3368086899420177e-19
481 250 -0.0027866809116809102
481 251 0.0010016025641025636
481 252 0.0020032051282051272
481 283 -0.0084757834757834723
481 284 4.3368086899420177e-19
481 285 -0.0080128205128205121
481 286 -0.020441595441595444
481 287 4.3368086899420177e-19
481 288 1.0842021724855044e-18
481 289 -0.0084757834757834757
481 290 -3.5236570605778894e-19
481 291 0.0080128205128205121
481 322 -0.0027866809116809106
481 323 0.0010016025641025638
481 324 -0.0020032051282051285
481 325 -0.0077813390313390338
481 326 -1.6263032587282567e-19
481 327 1.6263032587282567e-19
481 328 -0.0027866809116809119
481 329 -0.001001602564102564
481 330 0.0020032051282051285
481 439 -0.00046296296296296656
481 440 -0.0040064102564102561
481 441 1.1384122811097797e-18
481 442 0.011609686609686601
481 443 3.7947076036992655e-19
481 444 -1.3010426069826053e-18
481 445 -0.0004629629629629632
481 446 0.0040064102564102569
481 447 -7.589415207398531e-19
481 478 0.0088319088319088138
481 479 1.6263032587282567e-19
481 480 1.5178830414797062e-18
481 481 0.089173789173789181
482 244 -0.0010016025641025636
482 245 -0.0034989316239316202
482 246 -0.0033386752136752105
482 247 2.7105054312137611e-20
482 248 -0.013034188034188028
482 249 -0.013354700854700849
482 250 0.0010016025641025636
482 251 -0.0034989316239316223
482 252 -0.0033386752136752131
482 283 3.2526065174565133e-19
482 284 -0.0046474358974358965
482 285 1.0842021724855044e-19
482 286 2.1684043449710089e-19
482 287 -0.01474358974358975
482 288 -6.5052130349130266e-19
482 289 -2.9815559743351372e-19
482 290 -0.0046474358974358974
482 291 9.7578195523695399e-19
482 322 0.0010016025641025636
482 323 -0.003498931623931621
482 324 0.0033386752136752105
482 325 -2.7105054312137611e-20
482 326 -0.013034188034188033
482 327 0.013354700854700852
482 328 -0.001001602564102564
482 329 -0.0034989316239316245
482 330 0.003338675213675214
482 439 -0.0040064102564102561
482 440 -0.0033119658119658128
482 441 5.4210108624275222e-19
482 442 -1.0842021724855044e-19
482 443 -0.0094017094017094099
482 444 1.3010426069826053e-18
482 445 0.0040064102564102561
482 446 -0.0033119658119658141
482 447 5.4210108624275222e-19
482 478 5.4210108624275222e-20
482 479 0.024145299145299125
482 480 -4.3368086899420177e-19
482 481 1.3010426069826053e-18
482 482 0.11196581196581196
483 244 -0.0020032051282051276
483 245 -0.0033386752136752105
483 246 -0.0068376068376068281
483 247 4.87890977618477e-19
483 248 -0.013354700854700849
483 249 -0.026388888888888878
483 250 0.0020032051282051272
483 251 -0.0033386752136752127
483 252 -0.0068376068376068333
483 283 -0.0080128205128205121
483 284 5.4210108624275222e-19
483 285 -0.024679487179487161
483 286 1.1926223897340549e-18
483 287 0
483 288 -0.094871794871794882
483 289 0.0080128205128205121
483 290 1.6263032587282567e-18
483 291 -0.024679487179487175
483 322 -0.0020032051282051285
483 323 0.0033386752136752105
483 324 -0.0068376068376068333
483 325 -1.0842021724855044e-19
483 326 0.013354700854700852
483 327 -0.026388888888888892
483 328 0.002003205128205128
483 329 0.0033386752136752144
483 330 -0.0068376068376068402
483 439 9.2157184661267877e-19
483 440 5.4210108624275222e-19
483 441 0.01004273504273503
483 442 -1.3010426069826053e-18
483 443 2.8189256484623115e-18
483 444 0.044017094017093993
483 445 -1.0299920638612292e-18
483 446 2.1684043449710089e-19
483 447 0.010042735042735038
483 478 1.4094628242311558e-18
483 479 -1.7347234759768071e-18
483 480 0.050854700854700813
483 481 8.6736173798840355e-19
483 482 -1.9949319973733282e-17
483 483 0.2188034188034188
484 247 -0.002786680911680911
484 248 -0.0010016025641025638
484 249 -0.0020032051282051276
484 250 -0.0077813390313390268
484 251 2.9815559743351372e-19
484 252 5.4210108624275222e-19
484 253 -0.0027866809116809097
484 254 0.0010016025641025638
484 255 0.0020032051282051276
484 286 -0.0084757834757834792
484 287 -2.7105054312137611e-20
484 288 -0.0080128205128205121
484 289 -0.020441595441595441
484 290 -8.6736173798840355e-19
484 291 1.1926223897340549e-18
484 292 -0.0084757834757834757
484 293 1.0842021724855044e-19
484 294 0.0080128205128205121
484 325 -0.0027866809116809128
484 326 0.0010016025641025638
484 327 -0.0020032051282051285
484 328 -0.0077813390313390338
484 329 2.7105054312137611e-20
484 330 1.6263032587282567e-19
484 331 -0.0027866809116809106
484 332 -0.0010016025641025636
484 333 0.002003205128205128
484 442 -0.0004629629629629639
484 443 -0.0040064102564102569
484 444 1.6263032587282567e-19
484 445 0.011609686609686601
484 446 -1.0842021724855044e-19
484 447 -1.3010426069826053e-18
484 448 -0.00046296296296296678
484 449 0.0040064102564102569
484 450 -4.87890977618477e-19
484 481 0.0088319088319088329
484 482 -6.5052130349130266e-19
484 483 -7.589415207398531e-19
484 484 0.089173789173789181
485 247 -0.0010016025641025638
485 248 -0.0034989316239316232
485 249 -0.003338675213675214
485 250 2.439454888092385e-19
485 251 -0.01303418803418803
485 252 -0.013354700854700849
485 253 0.0010016025641025638
485 254 -0.003498931623931621
485 255 -0.0033386752136752122
485 286 1.3552527156068805e-19
485 287 -0.0046474358974359009
485 288 -1.0842021724855044e-18
485 289 -6.5052130349130266e-19
485 290 -0.01474358974358975
485 291 -1.7347234759768071e-18
485 292 1.8973538018496328e-19
485 293 -0.0046474358974358974
485 294 -9.7578195523695399e-19
485 325 0.0010016025641025638
485 326 -0.0034989316239316249
485 327 0.0033386752136752144
485 328 -5.4210108624275222e-20
485 329 -0.013034188034188033
485 330 0.013354700854700856
485 331 -0.0010016025641025636
485 332 -0.0034989316239316219
485 333 0.0033386752136752109
485 442 -0.0040064102564102578
485 443 -0.0033119658119658162
485 444 -1.6263032587282567e-18
485 445 -2.1684043449710089e-19
485 446 -0.0094017094017094151
485 447 4.1199682554449168e-18
485 448 0.0040064102564102561
485 449 -0.0033119658119658158
485 450 -1.951563910473908e-18
485 481 -6.5052130349130266e-19
485 482 0.02414529914529915
485 483 -2.1684043449710089e-18
485 484 -2.1684043449710089e-18
485 485 0.11196581196581197
486 247 -0.0020032051282051276
486 248 -0.003338675213675214
486 249 -0.0068376068376068367
486 250 5.4210108624275222e-19
486 251 -0.013354700854700849
486 252 -0.026388888888888878
486 253 0.0020032051282051267
486 254 -0.0033386752136752118
486 255 -0.0068376068376068307
486 286 -0.0080128205128205121
486 287 -2.1684043449710089e-19
486 288 -0.024679487179487189
486 289 1.3010426069826053e-18
486 290 -8.6736173798840355e-19
486 291 -0.094871794871794868
486 292 0.0080128205128205121
486 293 -1.1926223897340549e-18
486 294 -0.024679487179487168
486 325 -0.0020032051282051289
486 326 0.003338675213675214
486 327 -0.0068376068376068428
486 328 2.1684043449710089e-19
486 329 0.013354700854700854
486 330 -0.026388888888888892
486 331 0.002003205128205128
486 332 0.0033386752136752109
486 333 -0.0068376068376068359
486 442 2.1684043449710089e-19
486 443 -1.6263032587282567e-18
486 444 0.010042735042735038
486 445 -1.3010426069826053e-18
486 446 5.2041704279304213e-18
486 447 0.044017094017093986
486 448 -2.7105054312137611e-19
486 449 -9.7578195523695399e-19
486 450 0.01004273504273503
486 481 -5.4210108624275222e-19
486 482 -8.6736173798840355e-19
486 483 0.050854700854700861
486 484 -8.6736173798840355e-19
486 485 -1.6479873021779667e-17
486 486 0.21880341880341878
487 250 -0.0027866809116809093
487 251 -0.0010016025641025636
487 252 -0.0020032051282051276
487 253 -0.0077813390313390277
487 254 8.1315162936412833e-20
487 255 5.4210108624275222e-20
487 256 -0.002786680911680911
487 257 0.0010016025641025636
487 258 0.0020032051282051272
487 289 -0.008475783475783474
487 290 6.7762635780344027e-19
487 291 -0.0080128205128205121
487 292 -0.020441595441595448
487 293 -2.1684043449710089e-19
487 294 -2.1684043449710089e-19
487 295 -0.0084757834757834809
487 296 -5.9631119486702744e-19
487 297 0.0080128205128205138
487 328 -0.002786680911680911
487 329 0.0010016025641025638
487 330 -0.0020032051282051285
487 331 -0.0077813390313390329
487 332 -5.4210108624275222e-20
487 333 -1.6263032587282567e-19
487 334 -0.0027866809116809132
487 335 -0.001001602564102564
487 336 0.0020032051282051285
487 445 -0.00046296296296296515
487 446 -0.0040064102564102561
487 447 7.0473141211557788e-19
487 448 0.011609686609686599
487 449 -2.1684043449710089e-19
487 450 -2.1684043449710089e-18
487 451 -0.00046296296296296255
487 452 0.0040064102564102561
487 453 5.4210108624275222e-19
487 484 0.0088319088319088156
487 485 1.3010426069826053e-18
487 486 -3.2526065174565133e-19
487 487 0.089173789173789181
488 250 -0.0010016025641025636
488 251 -0.0034989316239316202
488 252 -0.0033386752136752109
488 253 8.1315162936412833e-20
488 254 -0.01303418803418803
488 255 -0.013354700854700849
488 256 0.0010016025641025636
488 257 -0.0034989316239316232
488 258 -0.0033386752136752127
488 289 6.7762635780344027e-19
488 290 -0.0046474358974358974
488 291 1.8431436932253575e-18
488 292 -6.5052130349130266e-19
488 293 -0.01474358974358975
488 294 8.6736173798840355e-19
488 295 -5.9631119486702744e-19
488 296 -0.0046474358974359035
488 297 2.3852447794681098e-18
488 328 0.0010016025641025636
488 329 -0.0034989316239316223
488 330 0.0033386752136752118
488 331 2.7105054312137611e-20
488 332 -0.013034188034188033
488 333 0.013354700854700852
488 334 -0.001001602564102564
488 335 -0.0034989316239316258
488 336 0.0033386752136752148
488 445 -0.0040064102564102561
488 446 -0.0033119658119658106
488 447 -7.589415207398531e-19
488 448 -2.1684043449710089e-19
488 449 -0.0094017094017094134
488 450 -1.5178830414797062e-18
488 451 0.0040064102564102552
488 452 -0.0033119658119658123
488 453 -1.3010426069826053e-18
488 484 1.1926223897340549e-18
488 485 0.024145299145299129
488 486 0
488 487 4.3368086899420177e-19
488 488 0.11196581196581196
489 250 -0.0020032051282051272
489 251 -0.0033386752136752114
489 252 -0.0068376068376068298
489 253 2.1684043449710089e-19
489 254 -0.013354700854700852
489 255 -0.026388888888888875
489 256 0.0020032051282051276
489 257 -0.0033386752136752135
489 258 -0.0068376068376068385
489 289 -0.0080128205128205121
489 290 2.8189256484623115e-18
489 291 -0.024679487179487168
489 292 0
489 293 -1.0842021724855044e-18
489 294 -0.094871794871794882
489 295 0.0080128205128205121
489 296 2.1684043449710089e-18
489 297 -0.024679487179487196
489 328 -0.0020032051282051285
489 329 0.0033386752136752114
489 330 -0.0068376068376068359
489 331 -3.2526065174565133e-19
489 332 0.013354700854700852
489 333 -0.026388888888888892
489 334 0.0020032051282051285
489 335 0.0033386752136752148
489 336 -0.0068376068376068445
489 445 4.3368086899420177e-19
489 446 -2.0599841277224584e-18
489 447 0.010042735042735031
489 448 -2.6020852139652106e-18
489 449 -2.1684043449710089e-19
489 450 0.044017094017093986
489 451 5.9631119486702744e-19
489 452 -2.1684043449710089e-18
489 453 0.010042735042735038
489 484 -2.1684043449710089e-19
489 485 8.6736173798840355e-19
489 486 0.050854700854700827
489 487 -6.0715321659188248e-18
489 488 -8.6736173798840355e-18
489 489 0.21880341880341883
490 253 -0.0027866809116809097
490 254 -0.0010016025641025636
490 255 -0.0020032051282051267
490 256 -0.0077813390313390216
490 257 1.8973538018496328e-19
490 258 4.3368086899420177e-19
490 259 -0.0027866809116809076
490 260 0.0010016025641025638
490 261 0.0020032051282051272
490 292 -0.0084757834757834723
490 293 -1.6263032587282567e-19
490 294 -0.0080128205128205104
490 295 -0.02044159544159543
490 296 -1.0842021724855044e-18
490 297 4.3368086899420177e-19
490 298 -0.0084757834757834671
490 299 6.2341624917916505e-19
490 300 0.0080128205128205121
490 331 -0.0027866809116809106
490 332 0.0010016025641025636
490 333 -0.002003205128205128
490 334 -0.0077813390313390268
490 335 -1.3552527156068805e-19
490 336 0
490 337 -0.0027866809116809084
490 338 -0.0010016025641025636
490 339 0.0020032051282051276
490 448 -0.00046296296296296428
490 449 -0.0040064102564102561
490 450 1.3010426069826053e-18
490 451 0.011609686609686599
490 452 -5.4210108624275222e-19
490 453 -8.6736173798840355e-19
490 454 -0.00046296296296297165
490 455 0.0040064102564102569
490 456 -1.3010426069826053e-18
490 487 0.0088319088319088346
490 488 -1.6805133673525319e-18
490 489 3.2526065174565133e-18
490 490 0.089173789173789153
491 253 -0.0010016025641025638
491 254 -0.0034989316239316223
491 255 -0.0033386752136752131
491 256 2.1684043449710089e-19
491 257 -0.013034188034188019
491 258 -0.013354700854700845
491 259 0.0010016025641025638
491 260 -0.0034989316239316184
491 261 -0.0033386752136752079
491 292 -1.8973538018496328e-19
491 293 -0.0046474358974358948
491 294 -2.0599841277224584e-18
491 295 -8.6736173798840355e-19
491 296 -0.014743589743589743
491 297 -1.5178830414797062e-18
491 298 6.2341624917916505e-19
491 299 -0.0046474358974358905
491 300 -5.0957502106818708e-18
491 331 0.0010016025641025636
491 332 -0.0034989316239316223
491 333 0.0033386752136752127
491 334 -1.3552527156068805e-19
491 335 -0.013034188034188026
491 336 0.013354700854700845
491 337 -0.0010016025641025634
491 338 -0.0034989316239316167
491 339 0.003338675213675207
491 448 -0.0040064102564102569
491 449 -0.0033119658119658175
491 450 3.3610267347050637e-18
491 451 2.1684043449710089e-19
491 452 -0.0094017094017094047
491 453 -8.6736173798840355e-19
491 454 0.0040064102564102569
491 455 -0.0033119658119658167
491 456 3.5778671692021646e-18
491 487 -1.7347234759768071e-18
491 488 0.02414529914529915
491 489 -3.903127820947816e-18
491 490 -3.0357660829594124e-18
491 491 0.11196581196581191
492 253 -0.0020032051282051267
492 254 -0.0033386752136752135
492 255 -0.0068376068376068324
492 256 3.2526065174565133e-19
492 257 -0.013354700854700844
492 258 -0.026388888888888861
492 259 0.0020032051282051272
492 260 -0.0033386752136752075
492 261 -0.006837606837606822
492 292 -0.0080128205128205104
492 293 -1.8431436932253575e-18
492 294 -0.024679487179487168
492 295 8.6736173798840355e-19
492 296 6.5052130349130266e-19
492 297 -0.094871794871794826
492 298 0.0080128205128205086
492 299 -4.3368086899420177e-18
492 300 -0.024679487179487133
492 331 -0.002003205128205128
492 332 0.0033386752136752131
492 333 -0.0068376068376068367
492 334 -5.4210108624275222e-20
492 335 0.013354700854700845
492 336 -0.026388888888888882
492 337 0.0020032051282051276
492 338 0.0033386752136752079
492 339 -0.0068376068376068272
492 448 1.4094628242311558e-18
492 449 2.8189256484623115e-18
492 450 0.010042735042735038
492 451 -8.6736173798840355e-19
492 452 3.6862873864507151e-18
492 453 0.044017094017093972
492 454 -1.463672932855431e-18
492 455 4.0115480381963664e-18
492 456 0.010042735042735017
492 487 4.4452289071905682e-18
492 488 -4.3368086899420177e-18
492 489 0.050854700854700854
492 490 -2.6020852139652106e-18
492 491 -1.214306433183765e-17
492 492 0.21880341880341864
493 256 -0.0027866809116809076
493 257 -0.0010016025641025634
493 258 -0.0020032051282051272
493 259 -0.0077813390313390216
493 260 -2.7105054312137611e-19
493 261 0
493 262 -0.0027866809116809132
493 263 0.0010016025641025638
493 264 0.002003205128205128
493 295 -0.0084757834757834723
493 296 1.0570971181733668e-18
493 297 -0.0080128205128205121
493 298 -0.020441595441595427
493 299 -1.7347234759768071e-18
493 300 -1.6263032587282567e-18
493 301 -0.0084757834757834861
493 302 5.4210108624275222e-19
493 303 0.0080128205128205156
493 334 -0.0027866809116809102
493 335 0.001001602564102564
493 336 -0.0020032051282051285
493 337 -0.0077813390313390268
493 338 -4.87890977618477e-19
493 339 -3.7947076036992655e-19
493 340 -0.0027866809116809141
493 341 -0.0010016025641025636
493 342 0.0020032051282051285
493 451 -0.00046296296296296764
493 452 -0.0040064102564102543
493 453 -5.4210108624275222e-19
493 454 0.011609686609686597
493 455 -1.5720931501039814e-18
493 456 -2.1684043449710089e-18
493 457 -0.00046296296296296569
493 458 0.0040064102564102569
493 459 1.951563910473908e-18
493 490 0.0088319088319087895
493 491 3.7404974950749903e-18
493 492 -4.1199682554449168e-18
493 493 0.089173789173789153
494 256 -0.0010016025641025631
494 257 -0.0034989316239316167
494 258 -0.0033386752136752062
494 259 -2.9815559743351372e-19
494 260 -0.013034188034188019
494 261 -0.013354700854700844
494 262 0.001001602564102564
494 263 -0.0034989316239316254
494 264 -0.0033386752136752153
494 295 1.0842021724855044e-18
494 296 -0.0046474358974358965
494 297 4.2283884726934673e-18
494 298 -1.951563910473908e-18
494 299 -0.014743589743589743
494 300 1.951563910473908e-18
494 301 4.87890977618477e-19
494 302 -0.0046474358974359087
494 303 -2.1684043449710089e-18
494 334 0.0010016025641025638
494 335 -0.0034989316239316215
494 336 0.0033386752136752096
494 337 -4.6078592330633938e-19
494 338 -0.013034188034188026
494 339 0.013354700854700842
494 340 -0.0010016025641025636
494 341 -0.0034989316239316249
494 342 0.003338675213675214
494 451 -0.0040064102564102543
494 452 -0.0033119658119658045
494 453 4.3368086899420177e-19
494 454 -1.7347234759768071e-18
494 455 -0.0094017094017094099
494 456 -4.1199682554449168e-18
494 457 0.0040064102564102569
494 458 -0.0033119658119658193
494 459 -9.1072982488782372e-18
494 490 3.6320772778264399e-18
494 491 0.024145299145299098
494 492 -9.1072982488782372e-18
494 493 -6.9388939039072284e-18
494 494 0.11196581196581189
495 256 -0.0020032051282051267
495 257 -0.003338675213675207
495 258 -0.0068376068376068263
495 259 -1.0842021724855044e-19
495 260 -0.013354700854700845
495 261 -0.026388888888888858
495 262 0.002003205128205128
495 263 -0.0033386752136752157
495 264 -0.0068376068376068411
495 295 -0.0080128205128205121
495 296 5.0957502106818708e-18
495 297 -0.024679487179487154
495 298 -1.0842021724855044e-18
495 299 1.951563910473908e-18
495 300 -0.094871794871794812
495 301 0.0080128205128205156
495 302 -1.7347234759768071e-18
495 303 -0.02467948717948721
495 334 -0.0020032051282051285
495 335 0.0033386752136752101
495 336 -0.0068376068376068324
495 337 -5.4210108624275222e-19
495 338 0.013354700854700845
495 339 -0.026388888888888878
495 340 0.0020032051282051289
495 341 0.0033386752136752135
495 342 -0.0068376068376068471
495 451 -4.3368086899420177e-19
495 452 -8.6736173798840355e-19
495 453 0.010042735042735023
495 454 -3.0357660829594124e-18
495 455 -7.589415207398531e-18
495 456 0.044017094017093958
495 457 1.951563910473908e-18
495 458 -9.9746599868666408e-18
495 459 0.010042735042735035
495 490 -3.1441863002079629e-18
495 491 -7.3725747729014302e-18
495 492 0.050854700854700764
495 493 -1.0408340855860843e-17
495 494 8.6736173798840355e-18
495 495 0.21880341880341866
496 259 -0.0027866809116809071
496 260 -0.0010016025641025636
496 261 -0.0020032051282051267
496 262 -0.0077813390313390312
496 263 3.7947076036992655e-19
496 264 3.7947076036992655e-19
496 265 -0.0027866809116809084
496 266 0.0010016025641025636
496 267 0.0020032051282051272
496 298 -0.0084757834757834653
496 299 1.0299920638612292e-18
496 300 -0.0080128205128205104
496 301 -0.020441595441595461
496 302 -6.5052130349130266e-19
496 303 1.0842021724855044e-18
496 304 -0.0084757834757834723
496 305 -1.111307226797642e-18
496 306 0.0080128205128205121
496 337 -0.0027866809116809102
496 338 0.0010016025641025642
496 339 -0.002003205128205128
496 340 -0.0077813390313390372
496 341 1.0842021724855044e-19
496 342 0
496 343 -0.002786680911680911
496 344 -0.001001602564102564
496 345 0.002003205128205128
496 454 -0.00046296296296296287
496 455 -0.0040064102564102552
496 456 2.8731357570865868e-18
496 457 0.011609686609686603
496 458 6.5052130349130266e-19
496 459 -2.1684043449710089e-18
496 460 -0.00046296296296296119
496 461 0.0040064102564102561
496 462 -2.2226144535952841e-18
496 493 0.0088319088319088294
496 494 3.2526065174565133e-18
496 495 9.540979117872439e-18
496 496 0.089173789173789181
497 259 -0.0010016025641025636
497 260 -0.0034989316239316184
497 261 -0.0033386752136752118
497 262 3.2526065174565133e-19
497 263 -0.013034188034188033
497 264 -0.013354700854700852
497 265 0.0010016025641025636
497 266 -0.003498931623931621
497 267 -0.0033386752136752114
497 298 1.0299920638612292e-18
497 299 -0.0046474358974358896
497 300 6.613633252161577e-18
497 301 -6.5052130349130266e-19
497 302 -0.014743589743589759
497 303 -3.903127820947816e-18
497 304 -9.2157184661267877e-19
497 305 -0.0046474358974358939
497 306 4.1199682554449168e-18
497 337 0.001001602564102564
497 338 -0.0034989316239316232
497 339 0.0033386752136752127
497 340 8.1315162936412833e-20
497 341 -0.01303418803418804
497 342 0.013354700854700863
497 343 -0.001001602564102564
497 344 -0.0034989316239316241
497 345 0.0033386752136752148
497 454 -0.0040064102564102561
497 455 -0.0033119658119658089
497 456 6.5052130349130266e-19
497 457 2.7105054312137611e-19
497 458 -0.0094017094017094169
497 459 1.0191500421363742e-17
497 460 0.0040064102564102561
497 461 -0.0033119658119658097
497 462 5.7462715141731735e-18
497 493 3.1441863002079629e-18
497 494 0.024145299145299143
497 495 5.2041704279304213e-18
497 496 -4.3368086899420177e-19
497 497 0.11196581196581198
498 259 -0.0020032051282051267
498 260 -0.0033386752136752109
498 261 -0.0068376068376068255
498 262 2.7105054312137611e-19
498 263 -0.013354700854700854
498 264 -0.026388888888888889
498 265 0.0020032051282051272
498 266 -0.0033386752136752114
498 267 -0.0068376068376068307
498 298 -0.0080128205128205121
498 299 4.5536491244391186e-18
498 300 -0.024679487179487147
498 301 6.5052130349130266e-19
498 302 -5.2041704279304213e-18
498 303 -0.094871794871794923
498 304 0.0080128205128205104
498 305 3.5778671692021646e-18
498 306 -0.024679487179487165
498 337 -0.002003205128205128
498 338 0.0033386752136752122
498 339 -0.0068376068376068298
498 340 -1.0842021724855044e-19
498 341 0.013354700854700861
498 342 -0.026388888888888906
498 343 0.002003205128205128
498 344 0.0033386752136752148
498 345 -0.0068376068376068359
498 454 2.8189256484623115e-18
498 455 3.7947076036992655e-18
498 456 0.010042735042735038
498 457 -1.7347234759768071e-18
498 458 1.3877787807814457e-17
498 459 0.044017094017093999
498 460 -2.0057740190981832e-18
498 461 8.565197162635485e-18
498 462 0.010042735042735042
498 493 9.540979117872439e-18
498 494 2.6020852139652106e-18
498 495 0.050854700854700854
498 496 -6.0715321659188248e-18
498 497 -3.1225022567582528e-17
498 498 0.21880341880341889
499 262 -0.0027866809116809132
499 263 -0.0010016025641025638
499 264 -0.002003205128205128
499 265 -0.0077813390313390251
499 266 3.7947076036992655e-19
499 267 1.0299920638612292e-18
499 268 -0.002786680911680908
499 269 0.0010016025641025636
499 270 0.0020032051282051272
499 301 -0.0084757834757834827
499 302 -4.3368086899420177e-19
499 303 -0.0080128205128205156
499 304 -0.020441595441595437
499 305 4.3368086899420177e-19
499 306 3.3610267347050637e-18
499 307 -0.0084757834757834688
499 308 -1.8973538018496328e-19
499 309 0.0080128205128205121
499 340 -0.0027866809116809132
499 341 0.0010016025641025636
499 342 -0.0020032051282051289
499 343 -0.0077813390313390303
499 344 1.6263032587282567e-19
499 345 4.87890977618477e-19
499 346 -0.0027866809116809093
499 347 -0.001001602564102564
499 348 0.002003205128205128
499 457 -0.00046296296296296423
499 458 -0.0040064102564102569
499 459 -1.0842021724855044e-18
499 460 0.011609686609686603
499 461 7.589415207398531e-19
499 462 8.6736173798840355e-19
499 463 -0.00046296296296296927
499 464 0.0040064102564102561
499 465 -9.2157184661267877e-19
499 496 0.0088319088319088381
499 497 -3.0357660829594124e-18
499 498 -7.1557343384043293e-18
499 499 0.089173789173789167
500 262 -0.001001602564102564
500 263 -0.0034989316239316262
500 264 -0.0033386752136752153
500 265 4.87890977618477e-19
500 266 -0.013034188034188026
500 267 -0.013354700854700851
500 268 0.0010016025641025636
500 269 -0.0034989316239316184
500 270 -0.0033386752136752088
500 301 -6.2341624917916505e-19
500 302 -0.0046474358974359069
500 303 -5.6378512969246231e-18
500 304 6.5052130349130266e-19
500 305 -0.014743589743589747
500 306 6.0715321659188248e-18
500 307 -1.6263032587282567e-19
500 308 -0.0046474358974358931
500 309 8.6736173798840355e-19
500 340 0.0010016025641025636
500 341 -0.0034989316239316254
500 342 0.0033386752136752153
500 343 2.439454888092385e-19
500 344 -0.01303418803418803
500 345 0.013354700854700845
500 346 -0.0010016025641025638
500 347 -0.0034989316239316193
500 348 0.0033386752136752088
500 457 -0.0040064102564102569
500 458 -0.003311965811965821
500 459 -4.3368086899420177e-19
500 460 9.7578195523695399e-19
500 461 -0.0094017094017094099
500 462 -1.0408340855860843e-17
500 463 0.0040064102564102561
500 464 -0.0033119658119658115
500 465 1.6263032587282567e-18
500 496 -3.5236570605778894e-18
500 497 0.024145299145299157
500 498 -1.0842021724855044e-17
500 499 2.6020852139652106e-18
500 500 0.11196581196581193
501 262 -0.002003205128205128
501 263 -0.0033386752136752166
501 264 -0.0068376068376068437
501 265 9.2157184661267877e-19
501 266 -0.013354700854700851
501 267 -0.026388888888888865
501 268 0.0020032051282051272
501 269 -0.0033386752136752092
501 270 -0.0068376068376068255
501 301 -0.0080128205128205156
501 302 -4.1199682554449168e-18
501 303 -0.024679487179487217
501 304 3.4694469519536142e-18
501 305 8.4567769453869346e-18
501 306 -0.094871794871794868
501 307 0.0080128205128205121
501 308 1.951563910473908e-18
501 309 -0.024679487179487147
501 340 -0.0020032051282051289
501 341 0.0033386752136752148
501 342 -0.0068376068376068471
501 343 5.4210108624275222e-19
501 344 0.013354700854700847
501 345 -0.026388888888888892
501 346 0.002003205128205128
501 347 0.0033386752136752083
501 348 -0.0068376068376068307
501 457 -1.1926223897340549e-18
501 458 -2.0599841277224584e-18
501 459 0.01004273504273504
501 460 1.3010426069826053e-18
501 461 -9.3241386833753381e-18
501 462 0.044017094017093986
501 463 -9.7578195523695399e-19
501 464 -1.6263032587282567e-18
501 465 0.010042735042735024
501 496 -5.9631119486702744e-18
501 497 -6.0715321659188248e-18
501 498 0.050854700854700868
501 499 6.9388939039072284e-18
501 500 9.540979117872439e-18
501 501 0.21880341880341875
502 265 -0.0027866809116809089
502 266 -0.0010016025641025638
502 267 -0.0020032051282051276
502 268 -0.0077813390313390251
502 269 5.1499603193061461e-19
502 270 1.3552527156068805e-18
502 271 -0.0027866809116809084
502 272 0.0010016025641025636
502 273 0.0020032051282051267
502 304 -0.0084757834757834723
502 305 1.8973538018496328e-19
502 306 -0.0080128205128205121
502 307 -0.020441595441595441
502 308 2.1684043449710089e-19
502 309 4.1199682554449168e-18
502 310 -0.0084757834757834688
502 311 -1.2197274440461925e-18
502 312 0.0080128205128205086
502 343 -0.0027866809116809106
502 344 0.001001602564102564
502 345 -0.0020032051282051285
502 346 -0.007781339031339032
502 347 1.8973538018496328e-19
502 348 8.1315162936412833e-19
502 349 -0.0027866809116809106
502 350 -0.001001602564102564
502 351 0.0020032051282051276
502 460 -0.00046296296296296873
502 461 -0.0040064102564102561
502 462 -1.6263032587282567e-19
502 463 0.011609686609686599
502 464 1.1926223897340549e-18
502 465 2.1684043449710089e-18
502 466 -0.00046296296296296032
502 467 0.0040064102564102561
502 468 -3.3610267347050637e-18
502 499 0.0088319088319087965
502 500 -5.4210108624275222e-20
502 501 -1.8431436932253575e-18
502 502 0.089173789173789167
503 265 -0.0010016025641025638
503 266 -0.0034989316239316189
503 267 -0.0033386752136752096
503 268 4.6078592330633938e-19
503 269 -0.013034188034188026
503 270 -0.013354700854700847
503 271 0.0010016025641025636
503 272 -0.0034989316239316202
503 273 -0.0033386752136752122
503 304 1.8973538018496328e-19
503 305 -0.0046474358974358965
503 306 1.951563910473908e-18
503 307 6.5052130349130266e-19
503 308 -0.014743589743589747
503 309 1.3010426069826053e-18
503 310 -1.1926223897340549e-18
503 311 -0.0046474358974358896
503 312 5.7462715141731735e-18
503 343 0.0010016025641025638
503 344 -0.0034989316239316206
503 345 0.0033386752136752092
503 346 2.9815559743351372e-19
503 347 -0.013034188034188033
503 348 0.013354700854700854
503 349 -0.001001602564102564
503 350 -0.0034989316239316241
503 351 0.0033386752136752144
503 460 -0.0040064102564102561
503 461 -0.0033119658119658115
503 462 -3.7947076036992655e-18
503 463 1.0299920638612292e-18
503 464 -0.0094017094017094117
503 465 6.0715321659188248e-18
503 466 0.0040064102564102561
503 467 -0.0033119658119658097
503 468 8.565197162635485e-18
503 499 1.0842021724855044e-19
503 500 0.024145299145299108
503 501 3.903127820947816e-18
503 502 3.0357660829594124e-18
503 503 0.11196581196581196
504 265 -0.0020032051282051276
504 266 -0.0033386752136752092
504 267 -0.0068376068376068281
504 268 1.1926223897340549e-18
504 269 -0.013354700854700845
504 270 -0.026388888888888871
504 271 0.0020032051282051267
504 272 -0.0033386752136752122
504 273 -0.0068376068376068281
504 304 -0.0080128205128205138
504 305 4.3368086899420177e-19
504 306 -0.024679487179487158
504 307 4.4452289071905682e-18
504 308 0
504 309 -0.094871794871794882
504 310 0.0080128205128205086
504 311 4.87890977618477e-18
504 312 -0.024679487179487154
504 343 -0.0020032051282051289
504 344 0.0033386752136752096
504 345 -0.0068376068376068324
504 346 8.6736173798840355e-19
504 347 0.013354700854700852
504 348 -0.026388888888888892
504 349 0.0020032051282051276
504 350 0.003338675213675214
504 351 -0.0068376068376068341
504 460 -1.0842021724855044e-19
504 461 -1.951563910473908e-18
504 462 0.010042735042735023
504 463 2.6020852139652106e-18
504 464 1.1058862159352145e-17
504 465 0.044017094017093986
504 466 -3.0357660829594124e-18
504 467 8.8904578143811364e-18
504 468 0.010042735042735045
504 499 -2.1684043449710089e-18
504 500 -8.6736173798840355e-19
504 501 0.050854700854700771
504 502 1.3010426069826053e-17
504 503 -2.7755575615628914e-17
504 504 0.21880341880341878
505 268 -0.0027866809116809145
505 269 -0.001001602564102564
505 270 -0.002003205128205128
505 271 -0.0038906695156695177
505 272 -0.00020032051282051238
505 273 -0.00040064102564102449
505 307 -0.0084757834757834896
505 308 -6.5052130349130266e-19
505 309 -0.0080128205128205156
505 310 -0.010220797720797734
505 311 8.6736173798840355e-19
505 312 -0.001602564102564099
505 346 -0.0027866809116809149
505 347 0.0010016025641025636
505 348 -0.0020032051282051293
505 349 -0.0038906695156695212
505 350 0.000200320512820513
505 351 -0.00040064102564102471
505 463 -0.00046296296296296406
505 464 -0.0040064102564102578
505 465 -2.1684043449710089e-18
505 466 0.0058048433048433021
505 467 -0.00080128205128205039
505 468 2.6020852139652106e-18
505 502 0.0088319088319088451
505 503 -3.903127820947816e-18
505 504 -1.0842021724855044e-17
505 505 0.044586894586894604
506 268 -0.001001602564102564
506 269 -0.0034989316239316288
506 270 -0.0033386752136752179
506 271 0.00020032051282051314
506 272 -0.0065170940170940191
506 273 -0.0066773504273504331
506 307 -7.589415207398531e-19
506 308 -0.0046474358974359121
506 309 -4.0115480381963664e-18
506 310 8.6736173798840355e-19
506 311 -0.007371794871794882
506 312 -2.1684043449710089e-19
506 346 0.0010016025641025636
506 347 -0.0034989316239316267
506 348 0.0033386752136752161
506 349 -0.00020032051282051243
506 350 -0.0065170940170940226
506 351 0.0066773504273504305
506 463 -0.0040064102564102578
506 464 -0.0033119658119658228
506 465 -5.0957502106818708e-18
506 466 0.00080128205128205234
506 467 -0.0047008547008547119
506 468 4.3368086899420177e-18
506 502 -3.7947076036992655e-18
506 503 0.02414529914529916
506 504 -3.903127820947816e-18
506 505 4.3368086899420177e-18
506 506 0.05598290598290602
507 268 -0.002003205128205128
507 269 -0.0033386752136752183
507 270 -0.006837606837606848
507 271 0.00040064102564102649
507 272 -0.0066773504273504331
507 273 -0.01319444444444445
507 307 -0.0080128205128205156
507 308 -4.2283884726934673e-18
507 309 -0.024679487179487238
507 310 0.0016025641025641068
507 311 1.951563910473908e-18
507 312 -0.047435897435897476
507 346 -0.0020032051282051293
507 347 0.0033386752136752153
507 348 -0.0068376068376068515
507 349 0.0004006410256410266
507 350 0.0066773504273504305
507 351 -0.01319444444444446
507 463 -2.439454888092385e-18
507 464 -5.4210108624275222e-18
507 465 0.010042735042735042
507 466 1.7347234759768071e-18
507 467 1.951563910473908e-18
507 468 0.022008547008547014
507 502 -1.0299920638612292e-17
507 503 -4.3368086899420177e-18
507 504 0.050854700854700875
507 505 1.0408340855860843e-17
507 506 -5.2041704279304213e-18
507 507 0.10940170940170948
508 274 -0.0038906695156695143
508 275 0.00020032051282051281
508 276 0.00040064102564102579
508 277 -0.0027866809116809102
508 278 0.0010016025641025638
508 279 0.002003205128205128
508 313 -0.01022079772079772
508 314 -2.1684043449710089e-19
508 315 0.0016025641025641029
508 316 -0.008475783475783474
508 317 -1.8973538018496328e-19
508 318 0.0080128205128205121
508 352 -0.0038906695156695138
508 353 -0.00020032051282051295
508 354 0.00040064102564102541
508 355 -0.0027866809116809102
508 356 -0.0010016025641025638
508 357 0.0020032051282051272
508 469 0.0058048433048433056
508 470 0.0008012820512820518
508 471 0
508 472 -0.00046296296296296461
508 473 0.0040064102564102569
508 474 -1.0842021724855044e-18
508 508 0.044586894586894577
509 274 -0.00020032051282051271
509 275 -0.006517094017094013
509 276 -0.0066773504273504244
509 277 0.0010016025641025636
509 278 -0.003498931623931621
509 279 -0.0033386752136752114
509 313 -2.1684043449710089e-19
509 314 -0.0073717948717948725
509 315 4.3368086899420177e-19
509 316 -1.0842021724855044e-19
509 317 -0.0046474358974358965
509 318 3.2526065174565133e-19
509 352 0.0002003205128205126
509 353 -0.0065170940170940148
509 354 0.0066773504273504253
509 355 -0.0010016025641025638
509 356 -0.0034989316239316219
509 357 0.0033386752136752122
509 469 -0.00080128205128205071
509 470 -0.0047008547008546998
509 471 -4.3368086899420177e-19
509 472 0.0040064102564102569
509 473 -0.0033119658119658106
509 474 7.589415207398531e-19
509 508 -1.3010426069826053e-18
509 509 0.055982905982905964
510 274 -0.00040064102564102557
510 275 -0.0066773504273504236
510 276 -0.013194444444444441
510 277 0.002003205128205128
510 278 -0.0033386752136752114
510 279 -0.0068376068376068333
510 313 -0.0016025641025641029
510 314 6.5052130349130266e-19
510 315 -0.04743589743589742
510 316 0.0080128205128205121
510 317 0
510 318 -0.024679487179487168
510 352 -0.00040064102564102546
510 353 0.0066773504273504262
510 354 -0.013194444444444436
510 355 0.0020032051282051267
510 356 0.0033386752136752127
510 357 -0.0068376068376068315
510 469 0
510 470 4.3368086899420177e-19
510 471 0.022008547008547003
510 472 -1.0842021724855044e-18
510 473 7.589415207398531e-19
510 474 0.010042735042735038
510 508 8.6736173798840355e-19
510 509 -6.0715321659188248e-18
510 510 0.10940170940170936
511 274 -0.0027866809116809097
511 275 -0.0010016025641025636
511 276 -0.002003205128205128
511 277 -0.007781339031339026
511 278 2.9815559743351372e-19
511 279 8.1315162936412833e-19
511 280 -0.002786680911680911
511 281 0.0010016025641025638
511 282 0.002003205128205128
511 313 -0.008475783475783474
511 314 2.7105054312137611e-19
511 315 -0.0080128205128205121
511 316 -0.020441595441595441
511 317 -2.1684043449710089e-19
511 318 3.2526065174565133e-19
511 319 -0.0084757834757834757
511 320 -1.6263032587282567e-19
511 321 0.0080128205128205121
511 352 -0.0027866809116809097
511 353 0.0010016025641025638
511 354 -0.0020032051282051267
511 355 -0.0077813390313390268
511 356 -1.3552527156068805e-19
511 357 5.4210108624275222e-19
511 358 -0.0027866809116809102
511 359 -0.0010016025641025638
511 360 0.0020032051282051267
511 469 -0.00046296296296296417
511 470 -0.0040064102564102561
511 471 2.7105054312137611e-19
511 472 0.011609686609686613
511 473 4.87890977618477e-19
511 474 -8.6736173798840355e-19
511 475 -0.00046296296296296466
511 476 0.0040064102564102561
511 477 -4.87890977618477e-19
511 508 0.008831908831908819
511 509 2.7105054312137611e-19
511 510 1.0842021724855044e-19
511 511 0.089173789173789167
512 274 -0.0010016025641025636
512 275 -0.003498931623931621
512 276 -0.0033386752136752114
512 277 4.0657581468206416e-19
512 278 -0.013034188034188026
512 279 -0.013354700854700849
512 280 0.0010016025641025636
512 281 -0.0034989316239316219
512 282 -0.0033386752136752122
512 313 2.439454888092385e-19
512 314 -0.0046474358974358965
512 315 5.4210108624275222e-19
512 316 -4.3368086899420177e-19
512 317 -0.014743589743589743
512 318 1.7347234759768071e-18
512 319 -1.3552527156068805e-19
512 320 -0.0046474358974358983
512 321 3.2526065174565133e-19
512 352 0.0010016025641025638
512 353 -0.0034989316239316223
512 354 0.0033386752136752122
512 355 -2.1684043449710089e-19
512 356 -0.01303418803418803
512 357 0.013354700854700849
512 358 -0.0010016025641025638
512 359 -0.0034989316239316228
512 360 0.0033386752136752122
512 469 -0.0040064102564102561
512 470 -0.0033119658119658097
512 471 1.0842021724855044e-19
512 472 3.7947076036992655e-19
512 473 -0.0094017094017093978
512 474 4.7704895589362195e-18
512 475 0.0040064102564102561
512 476 -0.0033119658119658106
512 477 -5.4210108624275222e-19
512 508 0
512 509 0.024145299145299132
512 510 -3.0357660829594124e-18
512 511 4.3368086899420177e-19
512 512 0.11196581196581193
513 274 -0.002003205128205128
513 275 -0.0033386752136752114
513 276 -0.0068376068376068333
513 277 7.589415207398531e-19
513 278 -0.013354700854700849
513 279 -0.026388888888888875
513 280 0.002003205128205128
513 281 -0.0033386752136752122
513 282 -0.0068376068376068359
513 313 -0.0080128205128205121
513 314 2.1684043449710089e-19
513 315 -0.024679487179487168
513 316 6.5052130349130266e-19
513 317 4.3368086899420177e-19
513 318 -0.094871794871794854
513 319 0.0080128205128205104
513 320 0
513 321 -0.024679487179487175
513 352 -0.0020032051282051267
513 353 0.0033386752136752122
513 354 -0.0068376068376068315
513 355 8.6736173798840355e-19
513 356 0.013354700854700852
513 357 -0.026388888888888871
513 358 0.0020032051282051272
513 359 0.0033386752136752122
513 360 -0.0068376068376068341
513 469 5.9631119486702744e-19
513 470 8.6736173798840355e-19
513 471 0.010042735042735038
513 472 -1.7347234759768071e-18
513 473 4.9873299934333204e-18
513 474 0.044017094017094006
513 475 -2.7105054312137611e-19
513 476 -5.4210108624275222e-19
513 477 0.010042735042735038
513 508 1.1926223897340549e-18
513 509 -2.6020852139652106e-18
513 510 0.050854700854700827
513 511 -5.2041704279304213e-18
513 512 -1.6479873021779667e-17
513 513 0.21880341880341869
514 277 -0.0027866809116809093
514 278 -0.0010016025641025638
514 279 -0.002003205128205128
514 280 -0.0077813390313390268
514 281 3.2526065174565133e-19
514 282 9.2157184661267877e-19
514 283 -0.0027866809116809106
514 284 0.0010016025641025638
514 285 0.002003205128205128
514 316 -0.0084757834757834705
514 317 4.0657581468206416e-19
514 318 -0.0080128205128205086
514 319 -0.020441595441595441
514 320 -2.1684043449710089e-19
514 321 7.589415207398531e-19
514 322 -0.0084757834757834723
514 323 -3.2526065174565133e-19
514 324 0.0080128205128205121
514 355 -0.0027866809116809089
514 356 0.0010016025641025636
514 357 -0.0020032051282051267
514 358 -0.0077813390313390268
514 359 -1.3552527156068805e-19
514 360 5.4210108624275222e-19
514 361 -0.0027866809116809097
514 362 -0.0010016025641025638
514 363 0.0020032051282051272
514 472 -0.00046296296296296406
514 473 -0.0040064102564102561
514 474 1.3552527156068805e-18
514 475 0.011609686609686609
514 476 8.1315162936412833e-19
514 477 -1.3010426069826053e-18
514 478 -0.00046296296296296352
514 479 0.0040064102564102561
514 480 -1.3010426069826053e-18
514 511 0.008831908831908819
514 512 -3.2526065174565133e-19
514 513 2.0599841277224584e-18
514 514 0.089173789173789167
515 277 -0.0010016025641025636
515 278 -0.0034989316239316206
515 279 -0.0033386752136752118
515 280 3.2526065174565133e-19
515 281 -0.013034188034188026
515 282 -0.013354700854700851
515 283 0.0010016025641025638
515 284 -0.0034989316239316219
515 285 -0.0033386752136752122
515 316 2.7105054312137611e-19
515 317 -0.0046474358974358931
515 318 8.6736173798840355e-19
515 319 -4.3368086899420177e-19
515 320 -0.014743589743589743
515 321 1.3010426069826053e-18
515 322 -2.7105054312137611e-19
515 323 -0.0046474358974358957
515 324 5.4210108624275222e-19
515 355 0.0010016025641025636
515 356 -0.0034989316239316215
515 357 0.0033386752136752118
515 358 -1.0842021724855044e-19
515 359 -0.01303418803418803
515 360 0.013354700854700851
515 361 -0.0010016025641025638
515 362 -0.0034989316239316223
515 363 0.0033386752136752122
515 472 -0.0040064102564102561
515 473 -0.0033119658119658106
515 474 2.2768245622195593e-18
515 475 7.589415207398531e-19
515 476 -0.0094017094017093978
515 477 3.0357660829594124e-18
515 478 0.0040064102564102561
515 479 -0.0033119658119658097
515 480 5.4210108624275222e-19
515 511 2.7105054312137611e-19
515 512 0.024145299145299136
515 513 -2.6020852139652106e-18
515 514 0
515 515 0.11196581196581196
516 277 -0.002003205128205128
516 278 -0.0033386752136752118
516 279 -0.0068376068376068324
516 280 3.7947076036992655e-19
516 281 -0.013354700854700849
516 282 -0.026388888888888882
516 283 0.002003205128205128
516 284 -0.0033386752136752122
516 285 -0.0068376068376068341
516 316 -0.0080128205128205086
516 317 7.589415207398531e-19
516 318 -0.024679487179487158
516 319 -4.3368086899420177e-19
516 320 0
516 321 -0.094871794871794854
516 322 0.0080128205128205104
516 323 1.0842021724855044e-18
516 324 -0.024679487179487168
516 355 -0.0020032051282051263
516 356 0.0033386752136752118
516 357 -0.0068376068376068289
516 358 4.87890977618477e-19
516 359 0.013354700854700852
516 360 -0.026388888888888871
516 361 0.0020032051282051267
516 362 0.0033386752136752131
516 363 -0.0068376068376068324
516 472 1.2468324983583301e-18
516 473 2.4936649967166602e-18
516 474 0.010042735042735038
516 475 -1.3010426069826053e-18
516 476 5.6378512969246231e-18
516 477 0.044017094017094013
516 478 -1.0299920638612292e-18
516 479 8.6736173798840355e-19
516 480 0.010042735042735042
516 511 3.6862873864507151e-18
516 512 -3.0357660829594124e-18
516 513 0.05085470085470082
516 514 -6.9388939039072284e-18
516 515 -1.3877787807814457e-17
516 516 0.21880341880341875
517 280 -0.0027866809116809106
517 281 -0.0010016025641025638
517 282 -0.002003205128205128
517 283 -0.007781339031339026
517 284 4.3368086899420177e-19
517 285 7.0473141211557788e-19
517 286 -0.0027866809116809106
517 287 0.0010016025641025636
517 288 0.0020032051282051276
517 319 -0.0084757834757834757
517 320 2.1684043449710089e-19
517 321 -0.0080128205128205121
517 322 -0.020441595441595437
517 323 -2.1684043449710089e-19
517 324 -2.1684043449710089e-19
517 325 -0.0084757834757834723
517 326 -3.5236570605778894e-19
517 327 0.0080128205128205121
517 358 -0.0027866809116809102
517 359 0.0010016025641025638
517 360 -0.0020032051282051267
517 361 -0.007781339031339026
517 362 -5.4210108624275222e-20
517 363 4.3368086899420177e-19
517 364 -0.0027866809116809097
517 365 -0.0010016025641025638
517 366 0.0020032051282051267
517 475 -0.00046296296296296352
517 476 -0.0040064102564102561
517 477 3.2526065174565133e-19
517 478 0.011609686609686609
517 479 9.7578195523695399e-19
517 480 0
517 481 -0.00046296296296296591
517 482 0.0040064102564102569
517 483 -9.7578195523695399e-19
517 514 0.0088319088319088225
517 515 -4.3368086899420177e-19
517 516 0
517 517 0.089173789173789153
518 280 -0.0010016025641025638
518 281 -0.0034989316239316219
518 282 -0.0033386752136752131
518 283 4.6078592330633938e-19
518 284 -0.013034188034188024
518 285 -0.013354700854700849
518 286 0.0010016025641025636
518 287 -0.0034989316239316206
518 288 -0.0033386752136752105
518 319 2.1684043449710089e-19
518 320 -0.0046474358974358983
518 321 -2.1684043449710089e-19
518 322 -4.3368086899420177e-19
518 323 -0.014743589743589743
518 324 -4.3368086899420177e-19
518 325 -2.7105054312137611e-19
518 326 -0.0046474358974358974
518 327 2.1684043449710089e-19
518 358 0.0010016025641025636
518 359 -0.0034989316239316219
518 360 0.0033386752136752122
518 361 -8.1315162936412833e-20
518 362 -0.01303418803418803
518 363 0.013354700854700849
518 364 -0.0010016025641025638
518 365 -0.003498931623931621
518 366 0.0033386752136752114
518 475 -0.0040064102564102561
518 476 -0.0033119658119658106
518 477 -2.1684043449710089e-19
518 478 8.1315162936412833e-19
518 479 -0.0094017094017093943
518 480 1.5178830414797062e-18
518 481 0.0040064102564102561
518 482 -0.0033119658119658097
518 483 -2.1684043449710089e-19
518 514 -5.4210108624275222e-19
518 515 0.024145299145299139
518 516 -1.7347234759768071e-18
518 517 4.3368086899420177e-19
518 518 0.11196581196581193
519 280 -0.002003205128205128
519 281 -0.0033386752136752127
519 282 -0.006837606837606835
519 283 3.7947076036992655e-19
519 284 -0.013354700854700849
519 285 -0.026388888888888875
519 286 0.002003205128205128
519 287 -0.0033386752136752109
519 288 -0.0068376068376068324
519 319 -0.0080128205128205121
519 320 -2.1684043449710089e-19
519 321 -0.024679487179487175
519 322 -1.0842021724855044e-19
519 323 4.3368086899420177e-19
519 324 -0.094871794871794826
519 325 0.0080128205128205121
519 326 4.3368086899420177e-19
519 327 -0.024679487179487161
519 358 -0.0020032051282051272
519 359 0.0033386752136752122
519 360 -0.0068376068376068324
519 361 5.4210108624275222e-19
519 362 0.013354700854700851
519 363 -0.026388888888888868
519 364 0.0020032051282051272
519 365 0.0033386752136752114
519 366 -0.0068376068376068298
519 475 3.2526065174565133e-19
519 476 -3.2526065174565133e-19
519 477 0.01004273504273504
519 478 -8.6736173798840355e-19
519 479 2.3852447794681098e-18
519 480 0.044017094017093999
519 481 -7.0473141211557788e-19
519 482 -7.589415207398531e-19
519 483 0.010042735042735033
519 514 3.2526065174565133e-19
519 515 -1.3010426069826053e-18
519 516 0.050854700854700834
519 517 -4.3368086899420177e-18
519 518 -1.3010426069826053e-17
519 519 0.21880341880341872
520 283 -0.0027866809116809093
520 284 -0.0010016025641025636
520 285 -0.0020032051282051276
520 286 -0.0077813390313390286
520 287 3.2526065174565133e-19
520 288 7.0473141211557788e-19
520 289 -0.002786680911680911
520 290 0.0010016025641025638
520 291 0.002003205128205128
520 322 -0.0084757834757834723
520 323 2.9815559743351372e-19
520 324 -0.0080128205128205086
520 325 -0.020441595441595441
520 326 0
520 327 1.3010426069826053e-18
520 328 -0.008475783475783474
520 329 -4.0657581468206416e-19
520 330 0.0080128205128205121
520 361 -0.0027866809116809089
520 362 0.0010016025641025636
520 363 -0.0020032051282051263
520 364 -0.0077813390313390277
520 365 -1.6263032587282567e-19
520 366 8.6736173798840355e-19
520 367 -0.0027866809116809102
520 368 -0.001001602564102564
520 369 0.0020032051282051267
520 478 -0.00046296296296296547
520 479 -0.0040064102564102561
520 480 8.1315162936412833e-19
520 481 0.011609686609686611
520 482 7.0473141211557788e-19
520 483 0
520 484 -0.00046296296296296211
520 485 0.0040064102564102569
520 486 -1.463672932855431e-18
520 517 0.0088319088319088121
520 518 1.0842021724855044e-19
520 519 1.3010426069826053e-18
520 520 0.089173789173789167
521 283 -0.0010016025641025636
521 284 -0.0034989316239316197
521 285 -0.0033386752136752105
521 286 2.7105054312137611e-19
521 287 -0.01303418803418803
521 288 -0.013354700854700849
521 289 0.0010016025641025638
521 290 -0.0034989316239316223
521 291 -0.0033386752136752135
521 322 2.9815559743351372e-19
521 323 -0.0046474358974358939
521 324 6.5052130349130266e-19
521 325 -2.1684043449710089e-19
521 326 -0.014743589743589747
521 327 2.1684043449710089e-19
521 328 -2.7105054312137611e-19
521 329 -0.0046474358974358965
521 330 1.1926223897340549e-18
521 361 0.0010016025641025638
521 362 -0.0034989316239316202
521 363 0.0033386752136752105
521 364 -1.3552527156068805e-19
521 365 -0.013034188034188031
521 366 0.013354700854700854
521 367 -0.001001602564102564
521 368 -0.0034989316239316232
521 369 0.003338675213675214
521 478 -0.0040064102564102561
521 479 -0.0033119658119658097
521 480 7.589415207398531e-19
521 481 7.0473141211557788e-19
521 482 -0.0094017094017093995
521 483 3.6862873864507151e-18
521 484 0.0040064102564102561
521 485 -0.0033119658119658106
521 486 1.0842021724855044e-18
521 517 0
521 518 0.024145299145299122
521 519 -8.6736173798840355e-19
521 520 4.3368086899420177e-19
521 521 0.11196581196581196
522 283 -0.002003205128205128
522 284 -0.0033386752136752105
522 285 -0.0068376068376068298
522 286 5.4210108624275222e-19
522 287 -0.013354700854700849
522 288 -0.026388888888888878
522 289 0.002003205128205128
522 290 -0.0033386752136752135
522 291 -0.0068376068376068367
522 322 -0.0080128205128205104
522 323 4.3368086899420177e-19
522 324 -0.024679487179487158
522 325 3.2526065174565133e-19
522 326 4.3368086899420177e-19
522 327 -0.09487179487179484
522 328 0.0080128205128205104
522 329 2.0599841277224584e-18
522 330 -0.024679487179487175
522 361 -0.0020032051282051267
522 362 0.0033386752136752114
522 363 -0.0068376068376068272
522 364 7.589415207398531e-19
522 365 0.013354700854700852
522 366 -0.026388888888888871
522 367 0.0020032051282051267
522 368 0.0033386752136752135
522 369 -0.0068376068376068341
522 478 8.6736173798840355e-19
522 479 9.7578195523695399e-19
522 480 0.010042735042735035
522 481 0
522 482 4.1199682554449168e-18
522 483 0.044017094017094006
522 484 -1.1926223897340549e-18
522 485 3.2526065174565133e-19
522 486 0.010042735042735045
522 517 2.2768245622195593e-18
522 518 -2.1684043449710089e-18
522 519 0.050854700854700806
522 520 -4.3368086899420177e-18
522 521 -1.5612511283791264e-17
522 522 0.21880341880341875
523 286 -0.0027866809116809115
523 287 -0.0010016025641025638
523 288 -0.002003205128205128
523 289 -0.0077813390313390286
523 290 2.7105054312137611e-19
523 291 8.1315162936412833e-19
523 292 -0.0027866809116809102
523 293 0.0010016025641025638
523 294 0.002003205128205128
523 325 -0.0084757834757834775
523 326 0
523 327 -0.0080128205128205121
523 328 -0.020441595441595444
523 329 -4.3368086899420177e-19
523 330 4.3368086899420177e-19
523 331 -0.0084757834757834723
523 332 8.1315162936412833e-20
523 333 0.0080128205128205121
523 364 -0.0027866809116809106
523 365 0.0010016025641025638
523 366 -0.0020032051282051267
523 367 -0.0077813390313390286
523 368 -2.1684043449710089e-19
523 369 5.9631119486702744e-19
523 370 -0.0027866809116809089
523 371 -0.0010016025641025636
523 372 0.0020032051282051267
523 481 -0.00046296296296296233
523 482 -0.0040064102564102561
523 483 1.0842021724855044e-19
523 484 0.011609686609686611
523 485 5.9631119486702744e-19
523 486 4.3368086899420177e-19
523 487 -0.00046296296296296558
523 488 0.0040064102564102569
523 489 -1.0299920638612292e-18
523 520 0.0088319088319088346
523 521 -8.6736173798840355e-19
523 522 -1.1926223897340549e-18
523 523 0.089173789173789167
524 286 -0.0010016025641025638
524 287 -0.0034989316239316236
524 288 -0.0033386752136752144
524 289 4.3368086899420177e-19
524 290 -0.01303418803418803
524 291 -0.013354700854700849
524 292 0.0010016025641025638
524 293 -0.003498931623931621
524 294 -0.0033386752136752118
524 325 0
524 326 -0.0046474358974358991
524 327 -7.589415207398531e-19
524 328 0
524 329 -0.014743589743589747
524 330 -1.0842021724855044e-18
524 331 1.3552527156068805e-19
524 332 -0.0046474358974358957
524 333 -8.6736173798840355e-19
524 364 0.0010016025641025636
524 365 -0.0034989316239316236
524 366 0.0033386752136752135
524 367 -1.8973538018496328e-19
524 368 -0.013034188034188033
524 369 0.013354700854700854
524 370 -0.0010016025641025638
524 371 -0.0034989316239316215
524 372 0.0033386752136752109
524 481 -0.0040064102564102561
524 482 -0.0033119658119658123
524 483 -9.7578195523695399e-19
524 484 7.589415207398531e-19
524 485 -0.0094017094017093978
524 486 6.2883726004159257e-18
524 487 0.0040064102564102561
524 488 -0.0033119658119658119
524 489 -1.5178830414797062e-18
524 520 -5.4210108624275222e-19
524 521 0.02414529914529915
524 522 8.6736173798840355e-19
524 523 -1.3010426069826053e-18
524 524 0.11196581196581197
525 286 -0.002003205128205128
525 287 -0.0033386752136752144
525 288 -0.0068376068376068385
525 289 7.589415207398531e-19
525 290 -0.013354700854700849
525 291 -0.026388888888888882
525 292 0.002003205128205128
525 293 -0.0033386752136752118
525 294 -0.0068376068376068324
525 325 -0.0080128205128205121
525 326 2.1684043449710089e-19
525 327 -0.024679487179487189
525 328 -1.0842021724855044e-19
525 329 -8.6736173798840355e-19
525 330 -0.094871794871794868
525 331 0.0080128205128205121
525 332 -9.7578195523695399e-19
525 333 -0.024679487179487161
525 364 -0.0020032051282051267
525 365 0.0033386752136752144
525 366 -0.0068376068376068359
525 367 5.4210108624275222e-19
525 368 0.013354700854700856
525 369 -0.026388888888888878
525 370 0.0020032051282051272
525 371 0.0033386752136752109
525 372 -0.0068376068376068307
525 481 2.7105054312137611e-19
525 482 -1.3010426069826053e-18
525 483 0.010042735042735045
525 484 0
525 485 6.5052130349130266e-18
525 486 0.044017094017094013
525 487 -8.1315162936412833e-19
525 488 0
525 489 0.010042735042735035
525 520 -6.5052130349130266e-19
525 521 0
525 522 0.050854700854700854
525 523 -1.7347234759768071e-18
525 524 -1.9949319973733282e-17
525 525 0.21880341880341875
526 289 -0.0027866809116809097
526 290 -0.0010016025641025636
526 291 -0.0020032051282051276
526 292 -0.0077813390313390286
526 293 3.5236570605778894e-19
526 294 5.9631119486702744e-19
526 295 -0.0027866809116809119
526 296 0.0010016025641025636
526 297 0.002003205128205128
526 328 -0.0084757834757834723
526 329 6.7762635780344027e-19
526 330 -0.0080128205128205086
526 331 -0.020441595441595441
526 332 0
526 333 5.4210108624275222e-19
526 334 -0.0084757834757834792
526 335 -5.9631119486702744e-19
526 336 0.0080128205128205121
526 367 -0.0027866809116809097
526 368 0.0010016025641025638
526 369 -0.0020032051282051267
526 370 -0.0077813390313390286
526 371 -2.9815559743351372e-19
526 372 7.589415207398531e-19
526 373 -0.0027866809116809119
526 374 -0.0010016025641025638
526 375 0.0020032051282051272
526 484 -0.00046296296296296379
526 485 -0.0040064102564102561
526 486 2.1684043449710089e-19
526 487 0.011609686609686609
526 488 7.0473141211557788e-19
526 489 -8.6736173798840355e-19
526 490 -0.00046296296296296206
526 491 0.0040064102564102561
526 492 -1.6263032587282567e-19
526 523 0.0088319088319088156
526 524 1.463672932855431e-18
526 525 -2.1684043449710089e-19
526 526 0.089173789173789153
527 289 -0.0010016025641025636
527 290 -0.0034989316239316197
527 291 -0.0033386752136752109
527 292 2.9815559743351372e-19
527 293 -0.01303418803418803
527 294 -0.013354700854700851
527 295 0.0010016025641025636
527 296 -0.0034989316239316232
527 297 -0.0033386752136752127
527 328 5.9631119486702744e-19
527 329 -0.0046474358974358948
527 330 2.1684043449710089e-18
527 331 -2.1684043449710089e-19
527 332 -0.014743589743589745
527 333 1.3010426069826053e-18
527 334 -5.9631119486702744e-19
527 335 -0.0046474358974359017
527 336 2.7105054312137611e-18
527 367 0.0010016025641025638
527 368 -0.0034989316239316223
527 369 0.0033386752136752118
527 370 -1.6263032587282567e-19
527 371 -0.013034188034188033
527 372 0.013354700854700852
527 373 -0.0010016025641025638
527 374 -0.0034989316239316254
527 375 0.0033386752136752144
527 484 -0.0040064102564102561
527 485 -0.0033119658119658071
527 486 -5.4210108624275222e-19
527 487 7.589415207398531e-19
527 488 -0.0094017094017094013
527 489 1.0842021724855044e-18
527 490 0.0040064102564102561
527 491 -0.0033119658119658089
527 492 -1.1926223897340549e-18
527 523 1.1926223897340549e-18
527 524 0.024145299145299129
527 525 -4.3368086899420177e-19
527 526 0
527 527 0.11196581196581196
528 289 -0.0020032051282051276
528 290 -0.0033386752136752114
528 291 -0.0068376068376068324
528 292 2.1684043449710089e-19
528 293 -0.013354700854700852
528 294 -0.026388888888888878
528 295 0.002003205128205128
528 296 -0.0033386752136752135
528 297 -0.0068376068376068393
528 328 -0.0080128205128205121
528 329 3.2526065174565133e-18
528 330 -0.024679487179487161
528 331 -1.0842021724855044e-19
528 332 6.5052130349130266e-19
528 333 -0.094871794871794868
528 334 0.0080128205128205121
528 335 2.1684043449710089e-18
528 336 -0.024679487179487196
528 367 -0.0020032051282051267
528 368 0.0033386752136752118
528 369 -0.0068376068376068324
528 370 4.3368086899420177e-19
528 371 0.013354700854700852
528 372 -0.026388888888888875
528 373 0.0020032051282051276
528 374 0.0033386752136752148
528 375 -0.0068376068376068393
528 484 4.87890977618477e-19
528 485 -1.1926223897340549e-18
528 486 0.010042735042735037
528 487 -1.3010426069826053e-18
528 488 3.903127820947816e-18
528 489 0.044017094017094006
528 490 2.1684043449710089e-19
528 491 -1.3010426069826053e-18
528 492 0.010042735042735043
528 523 1.4094628242311558e-18
528 524 0
528 525 0.050854700854700813
528 526 -8.6736173798840355e-18
528 527 -1.0408340855860843e-17
528 528 0.21880341880341878
529 292 -0.0027866809116809097
529 293 -0.0010016025641025638
529 294 -0.0020032051282051276
529 295 -0.0077813390313390234
529 296 1.8973538018496328e-19
529 297 6.5052130349130266e-19
529 298 -0.0027866809116809076
529 299 0.001001602564102564
529 300 0.0020032051282051276
529 331 -0.0084757834757834723
529 332 -2.1684043449710089e-19
529 333 -0.0080128205128205086
529 334 -0.02044159544159543
529 335 -8.6736173798840355e-19
529 336 5.4210108624275222e-19
529 337 -0.0084757834757834653
529 338 6.7762635780344027e-19
529 339 0.0080128205128205121
529 370 -0.0027866809116809093
529 371 0.0010016025641025636
529 372 -0.0020032051282051267
529 373 -0.0077813390313390234
529 374 -3.7947076036992655e-19
529 375 7.0473141211557788e-19
529 376 -0.0027866809116809063
529 377 -0.0010016025641025636
529 378 0.0020032051282051267
529 487 -0.00046296296296296309
529 488 -0.0040064102564102561
529 489 1.4094628242311558e-18
529 490 0.011609686609686609
529 491 5.4210108624275222e-20
529 492 0
529 493 -0.00046296296296297095
529 494 0.0040064102564102569
529 495 -1.7347234759768071e-18
529 526 0.0088319088319088364
529 527 -1.6263032587282567e-18
529 528 3.6862873864507151e-18
529 529 0.089173789173789125
530 292 -0.0010016025641025638
530 293 -0.0034989316239316228
530 294 -0.0033386752136752127
530 295 2.9815559743351372e-19
530 296 -0.013034188034188021
530 297 -0.013354700854700845
530 298 0.0010016025641025638
530 299 -0.0034989316239316176
530 300 -0.0033386752136752075
530 331 -1.6263032587282567e-19
530 332 -0.0046474358974358948
530 333 -1.3010426069826053e-18
530 334 -8.6736173798840355e-19
530 335 -0.014743589743589738
530 336 -2.6020852139652106e-18
530 337 6.7762635780344027e-19
530 338 -0.0046474358974358896
530 339 -5.4210108624275222e-18
530 370 0.0010016025641025636
530 371 -0.0034989316239316223
530 372 0.0033386752136752131
530 373 -3.5236570605778894e-19
530 374 -0.013034188034188024
530 375 0.013354700854700845
530 376 -0.0010016025641025636
530 377 -0.0034989316239316154
530 378 0.003338675213675207
530 487 -0.0040064102564102561
530 488 -0.0033119658119658141
530 489 3.6862873864507151e-18
530 490 4.87890977618477e-19
530 491 -0.0094017094017093926
530 492 1.0842021724855044e-18
530 493 0.0040064102564102569
530 494 -0.0033119658119658141
530 495 4.3368086899420177e-18
530 526 -1.6805133673525319e-18
530 527 0.02414529914529915
530 528 -3.903127820947816e-18
530 529 -1.7347234759768071e-18
530 530 0.1119658119658119
531 292 -0.0020032051282051276
531 293 -0.0033386752136752135
531 294 -0.0068376068376068333
531 295 5.9631119486702744e-19
531 296 -0.013354700854700845
531 297 -0.026388888888888868
531 298 0.0020032051282051276
531 299 -0.003338675213675207
531 300 -0.0068376068376068237
531 331 -0.0080128205128205104
531 332 -1.7347234759768071e-18
531 333 -0.024679487179487168
531 334 4.3368086899420177e-19
531 335 2.1684043449710089e-19
531 336 -0.094871794871794812
531 337 0.0080128205128205086
531 338 -4.3368086899420177e-18
531 339 -0.02467948717948713
531 370 -0.0020032051282051267
531 371 0.0033386752136752131
531 372 -0.0068376068376068315
531 373 7.0473141211557788e-19
531 374 0.013354700854700845
531 375 -0.026388888888888861
531 376 0.0020032051282051267
531 377 0.003338675213675207
531 378 -0.0068376068376068211
531 487 1.5720931501039814e-18
531 488 3.5778671692021646e-18
531 489 0.010042735042735042
531 490 -4.3368086899420177e-19
531 491 6.0715321659188248e-18
531 492 0.044017094017093993
531 493 -1.463672932855431e-18
531 494 4.2283884726934673e-18
531 495 0.010042735042735021
531 526 4.87890977618477e-18
531 527 -3.903127820947816e-18
531 528 0.050854700854700854
531 529 -5.2041704279304213e-18
531 530 -6.9388939039072284e-18
531 531 0.21880341880341864
532 295 -0.0027866809116809084
532 296 -0.0010016025641025634
532 297 -0.002003205128205128
532 298 -0.0077813390313390234
532 299 -1.6263032587282567e-19
532 300 2.7105054312137611e-19
532 301 -0.0027866809116809132
532 302 0.0010016025641025638
532 303 0.0020032051282051285
532 334 -0.0084757834757834705
532 335 1.2197274440461925e-18
532 336 -0.0080128205128205104
532 337 -0.020441595441595427
532 338 -1.951563910473908e-18
532 339 -1.3010426069826053e-18
532 340 -0.0084757834757834827
532 341 6.5052130349130266e-19
532 342 0.0080128205128205156
532 373 -0.0027866809116809084
532 374 0.001001602564102564
532 375 -0.0020032051282051263
532 376 -0.0077813390313390234
532 377 -6.5052130349130266e-19
532 378 1.0842021724855044e-19
532 379 -0.0027866809116809123
532 380 -0.0010016025641025636
532 381 0.0020032051282051272
532 490 -0.00046296296296296645
532 491 -0.0040064102564102543
532 492 -4.3368086899420177e-19
532 493 0.011609686609686609
532 494 -6.5052130349130266e-19
532 495 -8.6736173798840355e-19
532 496 -0.00046296296296296482
532 497 0.0040064102564102578
532 498 1.3010426069826053e-18
532 529 0.0088319088319087878
532 530 3.6862873864507151e-18
532 531 -3.5778671692021646e-18
532 532 0.089173789173789125
533 295 -0.0010016025641025631
533 296 -0.0034989316239316167
533 297 -0.0033386752136752062
533 298 -3.2526065174565133e-19
533 299 -0.013034188034188019
533 300 -0.013354700854700845
533 301 0.001001602564102564
533 302 -0.0034989316239316267
533 303 -0.0033386752136752161
533 334 1.1655173354219173e-18
533 335 -0.0046474358974358948
533 336 4.0115480381963664e-18
533 337 -1.951563910473908e-18
533 338 -0.014743589743589733
533 339 2.6020852139652106e-18
533 340 7.0473141211557788e-19
533 341 -0.0046474358974359069
533 342 -1.8431436932253575e-18
533 373 0.0010016025641025638
533 374 -0.0034989316239316202
533 375 0.0033386752136752101
533 376 -6.2341624917916505e-19
533 377 -0.013034188034188023
533 378 0.013354700854700845
533 379 -0.0010016025641025636
533 380 -0.0034989316239316245
533 381 0.003338675213675214
533 490 -0.0040064102564102543
533 491 -0.0033119658119658011
533 492 1.3010426069826053e-18
533 493 -1.4094628242311558e-18
533 494 -0.0094017094017093909
533 495 -1.3010426069826053e-18
533 496 0.0040064102564102578
533 497 -0.0033119658119658167
533 498 -8.4567769453869346e-18
533 529 4.3368086899420177e-18
533 530 0.024145299145299098
533 531 -8.6736173798840355e-18
533 532 -7.3725747729014302e-18
533 533 0.1119658119658119
534 295 -0.002003205128205128
534 296 -0.0033386752136752062
534 297 -0.0068376068376068281
534 298 0
534 299 -0.013354700854700845
534 300 -0.026388888888888865
534 301 0.0020032051282051285
534 302 -0.0033386752136752161
534 303 -0.0068376068376068445
534 334 -0.0080128205128205104
534 335 4.9873299934333204e-18
534 336 -0.024679487179487147
534 337 -1.8431436932253575e-18
534 338 1.7347234759768071e-18
534 339 -0.094871794871794812
534 340 0.0080128205128205156
534 341 -1.4094628242311558e-18
534 342 -0.02467948717948721
534 373 -0.0020032051282051267
534 374 0.0033386752136752105
534 375 -0.0068376068376068281
534 376 0
534 377 0.013354700854700845
534 378 -0.026388888888888861
534 379 0.0020032051282051276
534 380 0.0033386752136752127
534 381 -0.0068376068376068428
534 490 -3.2526065174565133e-19
534 491 -5.4210108624275222e-19
534 492 0.010042735042735026
534 493 -2.1684043449710089e-18
534 494 -5.2041704279304213e-18
534 495 0.044017094017093986
534 496 1.5178830414797062e-18
534 497 -9.3241386833753381e-18
534 498 0.01004273504273504
534 529 -2.0599841277224584e-18
534 530 -6.0715321659188248e-18
534 531 0.05085470085470075
534 532 -1.0408340855860843e-17
534 533 5.2041704279304213e-18
534 534 0.21880341880341858
535 298 -0.002786680911680908
535 299 -0.0010016025641025636
535 300 -0.0020032051282051276
535 301 -0.0077813390313390338
535 302 3.7947076036992655e-19
535 303 6.5052130349130266e-19
535 304 -0.0027866809116809097
535 305 0.0010016025641025636
535 306 0.0020032051282051276
535 337 -0.0084757834757834653
535 338 1.0842021724855044e-18
535 339 -0.0080128205128205086
535 340 -0.020441595441595455
535 341 -2.1684043449710089e-19
535 342 -2.1684043449710089e-19
535 343 -0.0084757834757834688
535 344 -1.0842021724855044e-18
535 345 0.0080128205128205121
535 376 -0.0027866809116809084
535 377 0.001001602564102564
535 378 -0.0020032051282051259
535 379 -0.0077813390313390329
535 380 -1.3552527156068805e-19
535 381 6.5052130349130266e-19
535 382 -0.0027866809116809097
535 383 -0.001001602564102564
535 384 0.0020032051282051267
535 493 -0.00046296296296296125
535 494 -0.0040064102564102552
535 495 2.7647155398380363e-18
535 496 0.011609686609686611
535 497 8.1315162936412833e-19
535 498 0
535 499 -0.00046296296296295989
535 500 0.0040064102564102561
535 501 -2.7105054312137611e-18
535 532 0.0088319088319088294
535 533 2.7105054312137611e-18
535 534 9.7578195523695399e-18
535 535 0.089173789173789181
536 298 -0.0010016025641025636
536 299 -0.0034989316239316189
536 300 -0.0033386752136752114
536 301 3.7947076036992655e-19
536 302 -0.013034188034188033
536 303 -0.013354700854700854
536 304 0.0010016025641025636
536 305 -0.0034989316239316206
536 306 -0.0033386752136752118
536 337 1.0570971181733668e-18
536 338 -0.0046474358974358879
536 339 6.3967928176644762e-18
536 340 -2.1684043449710089e-19
536 341 -0.014743589743589755
536 342 -2.8189256484623115e-18
536 343 -1.111307226797642e-18
536 344 -0.0046474358974358931
536 345 4.3368086899420177e-18
536 376 0.001001602564102564
536 377 -0.0034989316239316223
536 378 0.0033386752136752127
536 379 -1.6263032587282567e-19
536 380 -0.013034188034188038
536 381 0.013354700854700863
536 382 -0.0010016025641025638
536 383 -0.0034989316239316241
536 384 0.0033386752136752148
536 493 -0.0040064102564102561
536 494 -0.0033119658119658058
536 495 1.1926223897340549e-18
536 496 7.589415207398531e-19
536 497 -0.009401709401709403
536 498 1.1709383462843448e-17
536 499 0.0040064102564102552
536 500 -0.0033119658119658058
536 501 6.1799523831673753e-18
536 532 3.0899761915836876e-18
536 533 0.024145299145299143
536 534 5.6378512969246231e-18
536 535 1.3010426069826053e-18
536 536 0.111965811965812
537 298 -0.0020032051282051276
537 299 -0.0033386752136752109
537 300 -0.0068376068376068263
537 301 4.3368086899420177e-19
537 302 -0.013354700854700856
537 303 -0.026388888888888892
537 304 0.0020032051282051276
537 305 -0.0033386752136752122
537 306 -0.0068376068376068315
537 337 -0.0080128205128205086
537 338 4.9873299934333204e-18
537 339 -0.024679487179487144
537 340 -8.6736173798840355e-19
537 341 -4.1199682554449168e-18
537 342 -0.094871794871794909
537 343 0.0080128205128205104
537 344 4.1199682554449168e-18
537 345 -0.024679487179487161
537 376 -0.0020032051282051263
537 377 0.0033386752136752122
537 378 -0.0068376068376068255
537 379 6.5052130349130266e-19
537 380 0.013354700854700863
537 381 -0.026388888888888885
537 382 0.0020032051282051267
537 383 0.0033386752136752148
537 384 -0.0068376068376068298
537 493 2.7647155398380363e-18
537 494 4.4452289071905682e-18
537 495 0.010042735042735043
537 496 -8.6736173798840355e-19
537 497 1.5395670849294163e-17
537 498 0.044017094017094034
537 499 -2.2768245622195593e-18
537 500 8.8904578143811364e-18
537 501 0.010042735042735049
537 532 1.0408340855860843e-17
537 533 2.1684043449710089e-18
537 534 0.050854700854700841
537 535 -6.0715321659188248e-18
537 536 -3.2959746043559335e-17
537 537 0.21880341880341883
538 301 -0.0027866809116809136
538 302 -0.0010016025641025638
538 303 -0.002003205128205128
538 304 -0.0077813390313390268
538 305 5.4210108624275222e-19
538 306 1.4094628242311558e-18
538 307 -0.0027866809116809084
538 308 0.0010016025641025636
538 309 0.002003205128205128
538 340 -0.0084757834757834827
538 341 -4.87890977618477e-19
538 342 -0.0080128205128205121
538 343 -0.020441595441595441
538 344 4.3368086899420177e-19
538 345 3.3610267347050637e-18
538 346 -0.0084757834757834688
538 347 -1.3552527156068805e-19
538 348 0.0080128205128205121
538 379 -0.0027866809116809123
538 380 0.0010016025641025634
538 381 -0.0020032051282051272
538 382 -0.0077813390313390277
538 383 0
538 384 1.3010426069826053e-18
538 385 -0.002786680911680908
538 386 -0.0010016025641025638
538 387 0.0020032051282051272
538 496 -0.00046296296296296298
538 497 -0.0040064102564102569
538 498 -1.4094628242311558e-18
538 499 0.011609686609686611
538 500 1.6805133673525319e-18
538 501 2.1684043449710089e-18
538 502 -0.0004629629629629684
538 503 0.0040064102564102569
538 504 -1.3552527156068805e-18
538 535 0.0088319088319088399
538 536 -3.6320772778264399e-18
538 537 -6.7220534694101275e-18
538 538 0.089173789173789153
539 301 -0.001001602564102564
539 302 -0.0034989316239316267
539 303 -0.0033386752136752157
539 304 6.5052130349130266e-19
539 305 -0.013034188034188023
539 306 -0.013354700854700851
539 307 0.0010016025641025638
539 308 -0.003498931623931618
539 309 -0.0033386752136752088
539 340 -5.9631119486702744e-19
539 341 -0.0046474358974359069
539 342 -5.4210108624275222e-18
539 343 8.6736173798840355e-19
539 344 -0.014743589743589743
539 345 5.4210108624275222e-18
539 346 -2.439454888092385e-19
539 347 -0.0046474358974358922
539 348 1.0842021724855044e-18
539 379 0.0010016025641025634
539 380 -0.0034989316239316241
539 381 0.0033386752136752153
539 382 8.1315162936412833e-20
539 383 -0.01303418803418803
539 384 0.013354700854700847
539 385 -0.0010016025641025638
539 386 -0.0034989316239316189
539 387 0.0033386752136752096
539 496 -0.0040064102564102569
539 497 -0.0033119658119658171
539 498 -5.4210108624275222e-19
539 499 1.6263032587282567e-18
539 500 -0.0094017094017093943
539 501 -8.2399365108898337e-18
539 502 0.0040064102564102561
539 503 -0.0033119658119658084
539 504 1.1926223897340549e-18
539 535 -3.6862873864507151e-18
539 536 0.024145299145299157
539 537 -1.0408340855860843e-17
539 538 3.903127820947816e-18
539 539 0.11196581196581194
540 301 -0.0020032051282051285
540 302 -0.0033386752136752166
540 303 -0.0068376068376068445
540 304 1.3010426069826053e-18
540 305 -0.013354700854700852
540 306 -0.026388888888888871
540 307 0.0020032051282051276
540 308 -0.0033386752136752088
540 309 -0.0068376068376068272
540 340 -0.0080128205128205121
540 341 -3.6862873864507151e-18
540 342 -0.024679487179487213
540 343 3.1441863002079629e-18
540 344 8.6736173798840355e-18
540 345 -0.094871794871794854
540 346 0.0080128205128205121
540 347 1.8431436932253575e-18
540 348 -0.024679487179487147
540 379 -0.0020032051282051272
540 380 0.0033386752136752144
540 381 -0.0068376068376068419
540 382 1.0842021724855044e-18
540 383 0.013354700854700847
540 384 -0.026388888888888868
540 385 0.0020032051282051267
540 386 0.0033386752136752088
540 387 -0.0068376068376068263
540 496 -1.3552527156068805e-18
540 497 -1.6263032587282567e-18
540 498 0.010042735042735045
540 499 2.1684043449710089e-18
540 500 -7.589415207398531e-18
540 501 0.044017094017093999
540 502 -1.3010426069826053e-18
540 503 -1.4094628242311558e-18
540 504 0.010042735042735028
540 535 -5.8546917314217239e-18
540 536 -6.9388939039072284e-18
540 537 0.050854700854700868
540 538 5.2041704279304213e-18
540 539 1.0408340855860843e-17
540 540 0.21880341880341872
541 304 -0.0027866809116809093
541 305 -0.0010016025641025638
541 306 -0.002003205128205128
541 307 -0.0077813390313390268
541 308 6.2341624917916505e-19
541 309 1.7347234759768071e-18
541 310 -0.0027866809116809084
541 311 0.0010016025641025636
541 312 0.0020032051282051272
541 343 -0.0084757834757834723
541 344 1.8973538018496328e-19
541 345 -0.0080128205128205121
541 346 -0.020441595441595441
541 347 8.6736173798840355e-19
541 348 3.903127820947816e-18
541 349 -0.0084757834757834688
541 350 -1.0842021724855044e-18
541 351 0.0080128205128205104
541 382 -0.0027866809116809089
541 383 0.0010016025641025638
541 384 -0.0020032051282051272
541 385 -0.0077813390313390277
541 386 1.0842021724855044e-19
541 387 1.5178830414797062e-18
541 388 -0.0027866809116809089
541 389 -0.001001602564102564
541 390 0.0020032051282051263
541 499 -0.00046296296296296759
541 500 -0.0040064102564102561
541 501 -3.2526065174565133e-19
541 502 0.011609686609686609
541 503 1.5178830414797062e-18
541 504 2.6020852139652106e-18
541 505 -0.00046296296296295886
541 506 0.0040064102564102561
541 507 -3.6862873864507151e-18
541 538 0.0088319088319087982
541 539 0
541 540 -1.1926223897340549e-18
541 541 0.089173789173789167
542 304 -0.0010016025641025638
542 305 -0.0034989316239316193
542 306 -0.0033386752136752101
542 307 4.6078592330633938e-19
542 308 -0.013034188034188026
542 309 -0.013354700854700849
542 310 0.0010016025641025634
542 311 -0.0034989316239316197
542 312 -0.0033386752136752127
542 343 2.7105054312137611e-19
542 344 -0.0046474358974358957
542 345 2.0599841277224584e-18
542 346 8.6736173798840355e-19
542 347 -0.014743589743589747
542 348 1.951563910473908e-18
542 349 -9.7578195523695399e-19
542 350 -0.0046474358974358896
542 351 5.8546917314217239e-18
542 382 0.0010016025641025636
542 383 -0.0034989316239316197
542 384 0.0033386752136752092
542 385 2.7105054312137611e-20
542 386 -0.013034188034188031
542 387 0.013354700854700854
542 388 -0.001001602564102564
542 389 -0.0034989316239316236
542 390 0.003338675213675214
542 499 -0.0040064102564102561
542 500 -0.0033119658119658093
542 501 -3.3610267347050637e-18
542 502 1.4094628242311558e-18
542 503 -0.0094017094017093978
542 504 9.7578195523695399e-18
542 505 0.0040064102564102552
542 506 -0.0033119658119658058
542 507 8.7820375971325859e-18
542 538 2.1684043449710089e-19
542 539 0.024145299145299108
542 540 3.0357660829594124e-18
542 541 3.903127820947816e-18
542 542 0.11196581196581196
543 304 -0.0020032051282051285
543 305 -0.0033386752136752092
543 306 -0.0068376068376068307
543 307 1.3010426069826053e-18
543 308 -0.013354700854700849
543 309 -0.026388888888888878
543 310 0.0020032051282051276
543 311 -0.0033386752136752127
543 312 -0.0068376068376068289
543 343 -0.0080128205128205121
543 344 5.4210108624275222e-19
543 345 -0.024679487179487158
543 346 2.8189256484623115e-18
543 347 1.5178830414797062e-18
543 348 -0.094871794871794854
543 349 0.0080128205128205086
543 350 4.9873299934333204e-18
543 351 -0.024679487179487154
543 382 -0.0020032051282051272
543 383 0.0033386752136752096
543 384 -0.0068376068376068289
543 385 1.5720931501039814e-18
543 386 0.013354700854700852
543 387 -0.026388888888888871
543 388 0.0020032051282051263
543 389 0.003338675213675214
543 390 -0.0068376068376068289
543 499 1.6263032587282567e-19
543 500 -1.4094628242311558e-18
543 501 0.010042735042735028
543 502 2.6020852139652106e-18
543 503 1.2359904766334751e-17
543 504 0.044017094017094006
543 505 -3.5236570605778894e-18
543 506 9.1072982488782372e-18
543 507 0.01004273504273505
543 538 -7.589415207398531e-19
543 539 -1.7347234759768071e-18
543 540 0.050854700854700778
543 541 9.540979117872439e-18
543 542 -2.9490299091605721e-17
543 543 0.21880341880341872
544 307 -0.0027866809116809145
544 308 -0.0010016025641025638
544 309 -0.0020032051282051285
544 310 -0.0038906695156695169
544 311 -0.00020032051282051224
544 312 -0.00040064102564102427
544 346 -0.0084757834757834896
544 347 -7.0473141211557788e-19
544 348 -0.0080128205128205138
544 349 -0.010220797720797734
544 350 8.6736173798840355e-19
544 351 -0.0016025641025640999
544 385 -0.0027866809116809132
544 386 0.0010016025641025634
544 387 -0.0020032051282051276
544 388 -0.0038906695156695177
544 389 0.00020032051282051292
544 390 -0.00040064102564102406
544 502 -0.00046296296296296233
544 503 -0.0040064102564102578
544 504 -2.3310346708438345e-18
544 505 0.0058048433048433056
544 506 -0.00080128205128205017
544 507 3.0357660829594124e-18
544 541 0.0088319088319088433
544 542 -3.4694469519536142e-18
544 543 -1.0625181290357943e-17
544 544 0.044586894586894604
545 307 -0.001001602564102564
545 308 -0.003498931623931628
545 309 -0.0033386752136752174
545 310 0.00020032051282051319
545 311 -0.0065170940170940174
545 312 -0.0066773504273504314
545 346 -6.7762635780344027e-19
545 347 -0.0046474358974359104
545 348 -4.0115480381963664e-18
545 349 8.6736173798840355e-19
545 350 -0.007371794871794882
545 351 -6.5052130349130266e-19
545 385 0.0010016025641025636
545 386 -0.0034989316239316262
545 387 0.0033386752136752161
545 388 -0.00020032051282051257
545 389 -0.0065170940170940208
545 390 0.0066773504273504296
545 502 -0.0040064102564102578
545 503 -0.0033119658119658175
545 504 -4.87890977618477e-18
545 505 0.00080128205128205256
545 506 -0.0047008547008547032
545 507 6.5052130349130266e-18
545 541 -3.7947076036992655e-18
545 542 0.02414529914529916
545 543 -5.2041704279304213e-18
545 544 3.903127820947816e-18
545 545 0.05598290598290602
546 307 -0.0020032051282051289
546 308 -0.0033386752136752179
546 309 -0.0068376068376068497
546 310 0.00040064102564102682
546 311 -0.0066773504273504314
546 312 -0.013194444444444448
546 346 -0.0080128205128205156
546 347 -4.1199682554449168e-18
546 348 -0.024679487179487231
546 349 0.0016025641025641053
546 350 1.951563910473908e-18
546 351 -0.047435897435897476
546 385 -0.0020032051282051276
546 386 0.0033386752136752157
546 387 -0.0068376068376068471
546 388 0.00040064102564102671
546 389 0.0066773504273504314
546 390 -0.013194444444444448
546 502 -2.2768245622195593e-18
546 503 -4.7704895589362195e-18
546 504 0.010042735042735047
546 505 2.6020852139652106e-18
546 506 2.3852447794681098e-18
546 507 0.022008547008547021
546 541 -9.8662397696180903e-18
546 542 -4.7704895589362195e-18
546 543 0.050854700854700875
546 544 7.8062556418956319e-18
546 545 -1.0408340855860843e-17
546 546 0.10940170940170947
547 313 -0.003890669515669513
547 314 0.00020032051282051273
547 315 0.00040064102564102514
547 316 -0.0027866809116809093
547 317 0.0010016025641025636
547 318 0.0020032051282051267
547 352 -0.0051103988603988576
547 353 -0.0010016025641025638
547 354 0.00080128205128205104
547 355 -0.0042378917378917353
547 356 -0.00020032051282051284
547 357 0.0040064102564102543
547 508 0.0058048433048432969
547 509 0.00080128205128205125
547 510 -4.3368086899420177e-19
547 511 -0.00046296296296296591
547 512 0.0040064102564102561
547 513 -2.1684043449710089e-19
547 547 0.022293447293447288
548 313 -0.00020032051282051276
548 314 -0.006517094017094013
548 315 -0.0066773504273504244
548 316 0.0010016025641025636
548 317 -0.003498931623931621
548 318 -0.0033386752136752122
548 352 -0.0010016025641025638
548 353 -0.0036858974358974328
548 354 -0.0013354700854700844
548 355 0.00020032051282051273
548 356 -0.002323717948717947
548 357 -0.0006677350427350421
548 508 -0.00080128205128205147
548 509 -0.0047008547008547102
548 510 -6.5052130349130266e-19
548 511 0.0040064102564102561
548 512 -0.0033119658119658158
548 513 -2.1684043449710089e-19
548 547 -0.0040064102564102569
548 548 0.027991452991452989
549 313 -0.00040064102564102568
549 314 -0.0066773504273504244
549 315 -0.013194444444444434
549 316 0.0020032051282051267
549 317 -0.0033386752136752122
549 318 -0.0068376068376068315
549 352 -0.00080128205128205115
549 353 0.0013354700854700866
549 354 -0.0237179487179487
549 355 0.0040064102564102543
549 356 0.00066773504273504275
549 357 -0.012339743589743581
549 508 -8.6736173798840355e-19
549 509 6.5052130349130266e-19
549 510 0.022008547008546979
549 511 -1.6263032587282567e-19
549 512 0
549 513 0.010042735042735028
549 547 8.6736173798840355e-19
549 548 -2.6020852139652106e-18
549 549 0.054700854700854659
550 313 -0.0027866809116809093
550 314 -0.0010016025641025638
550 315 -0.0020032051282051267
550 316 -0.0077813390313390268
550 317 1.8973538018496328e-19
550 318 -1.0842021724855044e-19
550 319 -0.0027866809116809106
550 320 0.0010016025641025636
550 321 0.0020032051282051267
550 352 -0.0042378917378917344
550 353 0.00020032051282051298
550 354 -0.0040064102564102543
550 355 -0.010220797720797717
550 356 0
550 357 4.3368086899420177e-19
550 358 -0.0042378917378917361
550 359 -0.00020032051282051287
550 360 0.0040064102564102543
550 508 -0.00046296296296296618
550 509 -0.0040064102564102561
550 510 1.6263032587282567e-19
550 511 0.011609686609686594
550 512 -1.6263032587282567e-19
550 513 -2.1684043449710089e-18
550 514 -0.00046296296296296645
550 515 0.0040064102564102561
550 516 2.1684043449710089e-19
550 547 0.0044159544159544095
550 548 0.00080128205128205169
550 549 -4.3368086899420177e-19
550 550 0.044586894586894577
551 313 -0.0010016025641025636
551 314 -0.0034989316239316215
551 315 -0.0033386752136752122
551 316 8.1315162936412833e-20
551 317 -0.013034188034188026
551 318 -0.013354700854700849
551 319 0.0010016025641025636
551 320 -0.0034989316239316219
551 321 -0.0033386752136752122
551 352 -0.00020032051282051254
551 353 -0.0023237179487179461
551 354 -0.00066773504273504199
551 355 0
551 356 -0.0073717948717948673
551 357 -0.0026709401709401684
551 358 0.00020032051282051268
551 359 -0.0023237179487179478
551 360 -0.00066773504273504221
551 508 -0.0040064102564102561
551 509 -0.0033119658119658158
551 510 -2.1684043449710089e-19
551 511 -2.1684043449710089e-19
551 512 -0.0094017094017094238
551 513 1.3010426069826053e-18
551 514 0.0040064102564102569
551 515 -0.0033119658119658171
551 516 -1.1926223897340549e-18
551 547 -0.00080128205128205115
551 548 0.012072649572649564
551 549 -1.7347234759768071e-18
551 550 -4.3368086899420177e-19
551 551 0.055982905982905971
552 313 -0.0020032051282051272
552 314 -0.0033386752136752122
552 315 -0.0068376068376068307
552 316 5.4210108624275222e-20
552 317 -0.013354700854700852
552 318 -0.026388888888888868
552 319 0.0020032051282051267
552 320 -0.0033386752136752122
552 321 -0.0068376068376068333
552 352 -0.0040064102564102552
552 353 0.00066773504273504286
552 354 -0.012339743589743579
552 355 1.0842021724855044e-19
552 356 0.0026709401709401723
552 357 -0.047435897435897406
552 358 0.0040064102564102543
552 359 0.00066773504273504296
552 360 -0.012339743589743584
552 508 -1.6263032587282567e-19
552 509 1.0842021724855044e-19
552 510 0.01004273504273503
552 511 -1.7347234759768071e-18
552 512 1.0842021724855044e-18
552 513 0.044017094017093972
552 514 1.6263032587282567e-19
552 515 -1.0842021724855044e-18
552 516 0.010042735042735028
552 547 7.589415207398531e-19
552 548 -8.6736173798840355e-19
552 549 0.025427350427350403
552 550 -3.4694469519536142e-18
552 551 -5.2041704279304213e-18
552 552 0.10940170940170933
553 316 -0.0027866809116809089
553 317 -0.0010016025641025638
553 318 -0.0020032051282051267
553 319 -0.007781339031339026
553 320 2.1684043449710089e-19
553 321 1.0842021724855044e-19
553 322 -0.0027866809116809097
553 323 0.0010016025641025636
553 324 0.0020032051282051267
553 355 -0.0042378917378917335
553 356 0.00020032051282051292
553 357 -0.0040064102564102543
553 358 -0.010220797720797717
553 359 2.1684043449710089e-19
553 360 2.1684043449710089e-19
553 361 -0.0042378917378917344
553 362 -0.00020032051282051289
553 363 0.0040064102564102543
553 511 -0.00046296296296296667
553 512 -0.0040064102564102561
553 513 7.589415207398531e-19
553 514 0.011609686609686592
553 515 1.6263032587282567e-19
553 516 -1.7347234759768071e-18
553 517 -0.00046296296296296537
553 518 0.0040064102564102561
553 519 -8.1315162936412833e-19
553 550 0.0044159544159544113
553 551 0.00080128205128205147
553 552 1.0842021724855044e-18
553 553 0.04458689458689457
554 316 -0.0010016025641025636
554 317 -0.0034989316239316206
554 318 -0.0033386752136752118
554 319 1.8973538018496328e-19
554 320 -0.013034188034188028
554 321 -0.013354700854700851
554 322 0.0010016025641025636
554 323 -0.0034989316239316215
554 324 -0.0033386752136752122
554 355 -0.00020032051282051252
554 356 -0.0023237179487179457
554 357 -0.00066773504273504177
554 358 -2.1684043449710089e-19
554 359 -0.0073717948717948682
554 360 -0.0026709401709401697
554 361 0.00020032051282051265
554 362 -0.0023237179487179461
554 363 -0.00066773504273504166
554 511 -0.0040064102564102561
554 512 -0.0033119658119658167
554 513 1.951563910473908e-18
554 514 -1.0842021724855044e-19
554 515 -0.0094017094017094308
554 516 2.1684043449710089e-19
554 517 0.0040064102564102561
554 518 -0.0033119658119658162
554 519 0
554 550 -0.00080128205128205125
554 551 0.012072649572649568
554 552 -8.6736173798840355e-19
554 553 4.3368086899420177e-19
554 554 0.055982905982905971
555 316 -0.0020032051282051263
555 317 -0.0033386752136752122
555 318 -0.0068376068376068289
555 319 1.0842021724855044e-19
555 320 -0.013354700854700852
555 321 -0.026388888888888868
555 322 0.0020032051282051267
555 323 -0.0033386752136752122
555 324 -0.0068376068376068315
555 355 -0.0040064102564102543
555 356 0.00066773504273504318
555 357 -0.012339743589743579
555 358 -1.0842021724855044e-19
555 359 0.0026709401709401719
555 360 -0.047435897435897406
555 361 0.0040064102564102543
555 362 0.00066773504273504372
555 363 -0.012339743589743581
555 511 4.87890977618477e-19
555 512 1.8431436932253575e-18
555 513 0.010042735042735028
555 514 -1.7347234759768071e-18
555 515 3.2526065174565133e-18
555 516 0.044017094017093965
555 517 -3.2526065174565133e-19
555 518 -1.0842021724855044e-19
555 519 0.010042735042735031
555 550 1.4094628242311558e-18
555 551 -1.3010426069826053e-18
555 552 0.025427350427350406
555 553 -8.6736173798840355e-19
555 554 -8.6736173798840355e-18
555 555 0.10940170940170933
556 319 -0.0027866809116809093
556 320 -0.0010016025641025638
556 321 -0.0020032051282051267
556 322 -0.0077813390313390251
556 323 1.6263032587282567e-19
556 324 0
556 325 -0.0027866809116809089
556 326 0.0010016025641025636
556 327 0.0020032051282051263
556 358 -0.0042378917378917353
556 359 0.00020032051282051292
556 360 -0.0040064102564102543
556 361 -0.010220797720797715
556 362 0
556 363 1.0842021724855044e-19
556 364 -0.0042378917378917353
556 365 -0.00020032051282051287
556 366 0.0040064102564102543
556 514 -0.00046296296296296629
556 515 -0.0040064102564102561
556 516 -2.7105054312137611e-19
556 517 0.011609686609686594
556 518 3.2526065174565133e-19
556 519 -8.6736173798840355e-19
556 520 -0.00046296296296296797
556 521 0.0040064102564102569
556 522 5.4210108624275222e-20
556 553 0.004415954415954413
556 554 0.00080128205128205115
556 555 -5.4210108624275222e-19
556 556 0.044586894586894563
557 319 -0.0010016025641025638
557 320 -0.0034989316239316228
557 321 -0.0033386752136752127
557 322 1.6263032587282567e-19
557 323 -0.013034188034188026
557 324 -0.013354700854700849
557 325 0.0010016025641025638
557 326 -0.0034989316239316206
557 327 -0.0033386752136752105
557 358 -0.00020032051282051262
557 359 -0.002323717948717947
557 360 -0.00066773504273504231
557 361 0
557 362 -0.0073717948717948664
557 363 -0.0026709401709401693
557 364 0.00020032051282051268
557 365 -0.002323717948717947
557 366 -0.0006677350427350421
557 514 -0.0040064102564102561
557 515 -0.0033119658119658175
557 516 -1.4094628242311558e-18
557 517 2.7105054312137611e-19
557 518 -0.0094017094017094238
557 519 -4.3368086899420177e-19
557 520 0.0040064102564102561
557 521 -0.0033119658119658167
557 522 -1.1926223897340549e-18
557 553 -0.00080128205128205147
557 554 0.01207264957264957
557 555 -4.3368086899420177e-19
557 556 4.3368086899420177e-19
557 557 0.055982905982905964
558 319 -0.0020032051282051267
558 320 -0.0033386752136752131
558 321 -0.0068376068376068324
558 322 3.2526065174565133e-19
558 323 -0.013354700854700849
558 324 -0.026388888888888868
558 325 0.0020032051282051267
558 326 -0.0033386752136752105
558 327 -0.0068376068376068298
558 358 -0.0040064102564102543
558 359 0.00066773504273504296
558 360 -0.012339743589743584
558 361 3.2526065174565133e-19
558 362 0.0026709401709401719
558 363 -0.047435897435897406
558 364 0.0040064102564102543
558 365 0.00066773504273504264
558 366 -0.012339743589743582
558 514 -7.0473141211557788e-19
558 515 -1.0842021724855044e-18
558 516 0.010042735042735031
558 517 -4.3368086899420177e-19
558 518 -4.3368086899420177e-19
558 519 0.044017094017093958
558 520 -1.0842021724855044e-19
558 521 -1.7347234759768071e-18
558 522 0.010042735042735024
558 553 -7.589415207398531e-19
558 554 -4.3368086899420177e-19
558 555 0.025427350427350406
558 556 -1.7347234759768071e-18
558 557 -1.7347234759768071e-18
558 558 0.10940170940170932
559 322 -0.0027866809116809084
559 323 -0.0010016025641025638
559 324 -0.0020032051282051267
559 325 -0.0077813390313390268
559 326 1.6263032587282567e-19
559 327 3.7947076036992655e-19
559 328 -0.0027866809116809097
559 329 0.0010016025641025636
559 330 0.0020032051282051267
559 361 -0.0042378917378917318
559 362 0.00020032051282051298
559 363 -0.0040064102564102543
559 364 -0.010220797720797717
559 365 0
559 366 4.3368086899420177e-19
559 367 -0.0042378917378917353
559 368 -0.00020032051282051281
559 369 0.0040064102564102543
559 517 -0.0004629629629629684
559 518 -0.0040064102564102561
559 519 5.4210108624275222e-19
559 520 0.01160968660968659
559 521 -1.6263032587282567e-19
559 522 -8.6736173798840355e-19
559 523 -0.00046296296296296374
559 524 0.0040064102564102561
559 525 -7.0473141211557788e-19
559 556 0.0044159544159544043
559 557 0.00080128205128205158
559 558 1.4094628242311558e-18
559 559 0.044586894586894563
560 322 -0.0010016025641025638
560 323 -0.0034989316239316197
560 324 -0.0033386752136752109
560 325 2.1684043449710089e-19
560 326 -0.01303418803418803
560 327 -0.013354700854700849
560 328 0.0010016025641025638
560 329 -0.0034989316239316223
560 330 -0.0033386752136752131
560 361 -0.00020032051282051249
560 362 -0.0023237179487179439
560 363 -0.00066773504273504199
560 364 0
560 365 -0.0073717948717948673
560 366 -0.0026709401709401719
560 367 0.00020032051282051271
560 368 -0.0023237179487179461
560 369 -0.00066773504273504253
560 517 -0.0040064102564102569
560 518 -0.0033119658119658167
560 519 1.0842021724855044e-19
560 520 -2.1684043449710089e-19
560 521 -0.009401709401709429
560 522 -1.3010426069826053e-18
560 523 0.0040064102564102561
560 524 -0.0033119658119658167
560 525 1.0842021724855044e-19
560 556 -0.00080128205128205125
560 557 0.012072649572649561
560 558 1.3010426069826053e-18
560 559 4.3368086899420177e-19
560 560 0.055982905982905971
561 322 -0.0020032051282051267
561 323 -0.0033386752136752105
561 324 -0.0068376068376068272
561 325 5.4210108624275222e-20
561 326 -0.013354700854700849
561 327 -0.026388888888888871
561 328 0.0020032051282051263
561 329 -0.0033386752136752127
561 330 -0.0068376068376068324
561 361 -0.0040064102564102543
561 362 0.00066773504273504221
561 363 -0.01233974358974357
561 364 0
561 365 0.0026709401709401684
561 366 -0.047435897435897406
561 367 0.0040064102564102535
561 368 0.0006677350427350434
561 369 -0.012339743589743584
561 517 3.2526065174565133e-19
561 518 2.1684043449710089e-19
561 519 0.010042735042735024
561 520 -1.3010426069826053e-18
561 521 1.0842021724855044e-18
561 522 0.044017094017093972
561 523 -4.3368086899420177e-19
561 524 -4.3368086899420177e-19
561 525 0.010042735042735035
561 556 1.7347234759768071e-18
561 557 8.6736173798840355e-19
561 558 0.025427350427350393
561 559 -2.6020852139652106e-18
561 560 -6.0715321659188248e-18
561 561 0.10940170940170933
562 325 -0.002786680911680911
562 326 -0.001001602564102564
562 327 -0.0020032051282051267
562 328 -0.0077813390313390286
562 329 1.6263032587282567e-19
562 330 1.6263032587282567e-19
562 331 -0.0027866809116809097
562 332 0.0010016025641025636
562 333 0.0020032051282051263
562 364 -0.0042378917378917361
562 365 0.00020032051282051287
562 366 -0.0040064102564102543
562 367 -0.01022079772079772
562 368 0
562 369 1.0842021724855044e-18
562 370 -0.0042378917378917327
562 371 -0.00020032051282051268
562 372 0.0040064102564102543
562 520 -0.00046296296296296493
562 521 -0.0040064102564102561
562 522 -2.7105054312137611e-19
562 523 0.011609686609686592
562 524 -1.6263032587282567e-19
562 525 0
562 526 -0.00046296296296296748
562 527 0.0040064102564102569
562 528 -3.2526065174565133e-19
562 559 0.0044159544159544182
562 560 0.00080128205128205125
562 561 -8.6736173798840355e-19
562 562 0.04458689458689457
563 325 -0.001001602564102564
563 326 -0.0034989316239316232
563 327 -0.0033386752136752144
563 328 8.1315162936412833e-20
563 329 -0.01303418803418803
563 330 -0.013354700854700851
563 331 0.0010016025641025638
563 332 -0.0034989316239316215
563 333 -0.0033386752136752122
563 364 -0.00020032051282051262
563 365 -0.0023237179487179478
563 366 -0.00066773504273504351
563 367 0
563 368 -0.0073717948717948699
563 369 -0.0026709401709401719
563 370 0.00020032051282051289
563 371 -0.0023237179487179444
563 372 -0.00066773504273504221
563 520 -0.0040064102564102561
563 521 -0.0033119658119658193
563 522 -2.0599841277224584e-18
563 523 -2.1684043449710089e-19
563 524 -0.0094017094017094273
563 525 2.6020852139652106e-18
563 526 0.0040064102564102561
563 527 -0.0033119658119658184
563 528 -1.6263032587282567e-18
563 559 -0.00080128205128205147
563 560 0.012072649572649578
563 561 8.6736173798840355e-19
563 562 -4.3368086899420177e-19
563 563 0.055982905982905978
564 325 -0.0020032051282051267
564 326 -0.003338675213675214
564 327 -0.0068376068376068367
564 328 2.1684043449710089e-19
564 329 -0.013354700854700852
564 330 -0.026388888888888871
564 331 0.0020032051282051267
564 332 -0.0033386752136752122
564 333 -0.0068376068376068298
564 364 -0.0040064102564102552
564 365 0.00066773504273504286
564 366 -0.012339743589743589
564 367 8.6736173798840355e-19
564 368 0.0026709401709401701
564 369 -0.047435897435897427
564 370 0.0040064102564102535
564 371 0.00066773504273504242
564 372 -0.012339743589743572
564 520 -7.0473141211557788e-19
564 521 -2.3852447794681098e-18
564 522 0.010042735042735035
564 523 0
564 524 3.0357660829594124e-18
564 525 0.044017094017093972
564 526 -4.3368086899420177e-19
564 527 -1.4094628242311558e-18
564 528 0.010042735042735026
564 559 -5.4210108624275222e-19
564 560 1.7347234759768071e-18
564 561 0.025427350427350424
564 562 2.6020852139652106e-18
564 563 -5.2041704279304213e-18
564 564 0.10940170940170936
565 328 -0.0027866809116809089
565 329 -0.0010016025641025638
565 330 -0.0020032051282051267
565 331 -0.0077813390313390268
565 332 1.6263032587282567e-19
565 333 5.4210108624275222e-20
565 334 -0.002786680911680911
565 335 0.0010016025641025636
565 336 0.0020032051282051272
565 367 -0.004237891737891737
565 368 0.00020032051282051314
565 369 -0.0040064102564102552
565 370 -0.01022079772079772
565 371 0
565 372 8.6736173798840355e-19
565 373 -0.0042378917378917387
565 374 -0.00020032051282051298
565 375 0.0040064102564102552
565 523 -0.00046296296296296656
565 524 -0.0040064102564102561
565 525 5.4210108624275222e-20
565 526 0.011609686609686594
565 527 -1.0842021724855044e-19
565 528 -2.1684043449710089e-18
565 529 -0.00046296296296296293
565 530 0.0040064102564102561
565 531 5.9631119486702744e-19
565 562 0.0044159544159544087
565 563 0.00080128205128205256
565 564 -2.6020852139652106e-18
565 565 0.044586894586894577
566 328 -0.0010016025641025636
566 329 -0.0034989316239316202
566 330 -0.0033386752136752109
566 331 2.7105054312137611e-20
566 332 -0.01303418803418803
566 333 -0.013354700854700852
566 334 0.0010016025641025636
566 335 -0.0034989316239316232
566 336 -0.0033386752136752135
566 367 -0.00020032051282051238
566 368 -0.0023237179487179487
566 369 -0.00066773504273504069
566 370 0
566 371 -0.0073717948717948716
566 372 -0.0026709401709401693
566 373 0.00020032051282051252
566 374 -0.00232371794871795
566 375 -0.00066773504273504101
566 523 -0.0040064102564102561
566 524 -0.0033119658119658132
566 525 -1.4094628242311558e-18
566 526 -1.0842021724855044e-19
566 527 -0.0094017094017094256
566 528 -2.1684043449710089e-18
566 529 0.0040064102564102561
566 530 -0.0033119658119658136
566 531 -1.951563910473908e-18
566 562 -0.0008012820512820506
566 563 0.012072649572649566
566 564 4.3368086899420177e-19
566 565 4.3368086899420177e-19
566 566 0.055982905982905978
567 328 -0.0020032051282051267
567 329 -0.0033386752136752118
567 330 -0.0068376068376068289
567 331 0
567 332 -0.013354700854700852
567 333 -0.026388888888888875
567 334 0.0020032051282051272
567 335 -0.003338675213675214
567 336 -0.0068376068376068376
567 367 -0.0040064102564102552
567 368 0.0006677350427350447
567 369 -0.012339743589743589
567 370 6.5052130349130266e-19
567 371 0.0026709401709401727
567 372 -0.04743589743589742
567 373 0.0040064102564102543
567 374 0.00066773504273504459
567 375 -0.012339743589743596
567 523 -1.0842021724855044e-19
567 524 -2.1684043449710089e-18
567 525 0.010042735042735028
567 526 -2.1684043449710089e-18
567 527 -4.3368086899420177e-19
567 528 0.044017094017093972
567 529 5.4210108624275222e-19
567 530 -2.0599841277224584e-18
567 531 0.010042735042735035
567 562 -1.6263032587282567e-18
567 563 1.3010426069826053e-18
567 564 0.025427350427350403
567 565 0
567 566 -1.7347234759768071e-18
567 567 0.10940170940170936
568 331 -0.0027866809116809093
568 332 -0.0010016025641025636
568 333 -0.0020032051282051263
568 334 -0.0077813390313390225
568 335 5.4210108624275222e-20
568 336 1.0842021724855044e-19
568 337 -0.0027866809116809071
568 338 0.0010016025641025638
568 339 0.0020032051282051263
568 370 -0.0042378917378917344
568 371 0.00020032051282051262
568 372 -0.0040064102564102543
568 373 -0.01022079772079771
568 374 -4.3368086899420177e-19
568 375 1.5178830414797062e-18
568 376 -0.0042378917378917275
568 377 -0.00020032051282051235
568 378 0.0040064102564102535
568 526 -0.00046296296296296504
568 527 -0.0040064102564102569
568 528 8.1315162936412833e-19
568 529 0.01160968660968659
568 530 -1.0299920638612292e-18
568 531 -1.3010426069826053e-18
568 532 -0.00046296296296297252
568 533 0.0040064102564102561
568 534 -1.0842021724855044e-18
568 565 0.0044159544159544182
568 566 0.0008012820512820506
568 567 9.7578195523695399e-19
568 568 0.044586894586894556
569 331 -0.0010016025641025636
569 332 -0.0034989316239316228
569 333 -0.0033386752136752131
569 334 0
569 335 -0.013034188034188023
569 336 -0.013354700854700847
569 337 0.0010016025641025638
569 338 -0.003498931623931618
569 339 -0.0033386752136752079
569 370 -0.00020032051282051281
569 371 -0.0023237179487179465
569 372 -0.00066773504273504286
569 373 0
569 374 -0.0073717948717948612
569 375 -0.0026709401709401714
569 376 0.00020032051282051311
569 377 -0.0023237179487179387
569 378 -0.00066773504273504351
569 526 -0.0040064102564102561
569 527 -0.0033119658119658201
569 528 2.6020852139652106e-18
569 529 -5.9631119486702744e-19
569 530 -0.0094017094017094203
569 531 -6.5052130349130266e-19
569 532 0.0040064102564102561
569 533 -0.003311965811965821
569 534 3.3610267347050637e-18
569 565 -0.00080128205128205201
569 566 0.012072649572649575
569 567 1.3010426069826053e-18
569 568 -8.6736173798840355e-19
569 569 0.055982905982905964
570 331 -0.0020032051282051267
570 332 -0.0033386752136752144
570 333 -0.0068376068376068307
570 334 3.7947076036992655e-19
570 335 -0.013354700854700845
570 336 -0.026388888888888858
570 337 0.0020032051282051267
570 338 -0.0033386752136752075
570 339 -0.006837606837606822
570 370 -0.0040064102564102543
570 371 0.00066773504273504242
570 372 -0.012339743589743582
570 373 1.951563910473908e-18
570 374 0.002670940170940168
570 375 -0.047435897435897392
570 376 0.0040064102564102526
570 377 0.00066773504273503971
570 378 -0.012339743589743549
570 526 7.0473141211557788e-19
570 527 2.1684043449710089e-18
570 528 0.010042735042735035
570 529 -1.3010426069826053e-18
570 530 2.8189256484623115e-18
570 531 0.044017094017093944
570 532 -9.7578195523695399e-19
570 533 3.5778671692021646e-18
570 534 0.010042735042735011
570 565 1.6263032587282567e-18
570 566 -4.3368086899420177e-19
570 567 0.02542735042735042
570 568 2.6020852139652106e-18
570 569 -1.0408340855860843e-17
570 570 0.10940170940170929
571 334 -0.0027866809116809071
571 335 -0.0010016025641025634
571 336 -0.0020032051282051272
571 337 -0.0077813390313390225
571 338 -3.5236570605778894e-19
571 339 -3.2526065174565133e-19
571 340 -0.0027866809116809132
571 341 0.0010016025641025638
571 342 0.0020032051282051276
571 373 -0.0042378917378917361
571 374 0.00020032051282051327
571 375 -0.0040064102564102543
571 376 -0.01022079772079771
571 377 -8.6736173798840355e-19
571 378 -1.0842021724855044e-18
571 379 -0.0042378917378917457
571 380 -0.00020032051282051246
571 381 0.0040064102564102569
571 529 -0.0004629629629629697
571 530 -0.0040064102564102543
571 531 -5.4210108624275222e-19
571 532 0.01160968660968659
571 533 -2.1141942363467336e-18
571 534 -2.6020852139652106e-18
571 535 -0.00046296296296296634
571 536 0.0040064102564102578
571 537 1.951563910473908e-18
571 568 0.0044159544159543939
571 569 0.00080128205128205321
571 570 -5.3125906451789717e-18
571 571 0.044586894586894549
572 334 -0.0010016025641025634
572 335 -0.0034989316239316167
572 336 -0.0033386752136752057
572 337 -3.7947076036992655e-19
572 338 -0.013034188034188021
572 339 -0.013354700854700844
572 340 0.001001602564102564
572 341 -0.0034989316239316262
572 342 -0.0033386752136752161
572 373 -0.00020032051282051211
572 374 -0.0023237179487179483
572 375 -0.00066773504273503906
572 376 -1.0842021724855044e-18
572 377 -0.007371794871794863
572 378 -0.0026709401709401649
572 379 0.00020032051282051311
572 380 -0.0023237179487179574
572 381 -0.00066773504273504481
572 529 -0.0040064102564102543
572 530 -0.003311965811965808
572 531 2.1684043449710089e-19
572 532 -2.0057740190981832e-18
572 533 -0.0094017094017094203
572 534 -4.7704895589362195e-18
572 535 0.0040064102564102578
572 536 -0.0033119658119658228
572 537 -9.1072982488782372e-18
572 568 -0.0008012820512820493
572 569 0.012072649572649551
572 570 -3.0357660829594124e-18
572 571 -4.3368086899420177e-18
572 572 0.055982905982905944
573 334 -0.0020032051282051267
573 335 -0.0033386752136752066
573 336 -0.0068376068376068263
573 337 -3.7947076036992655e-19
573 338 -0.013354700854700845
573 339 -0.026388888888888854
573 340 0.0020032051282051272
573 341 -0.0033386752136752166
573 342 -0.0068376068376068419
573 373 -0.0040064102564102543
573 374 0.0006677350427350447
573 375 -0.012339743589743582
573 376 -1.4094628242311558e-18
573 377 0.0026709401709401727
573 378 -0.047435897435897392
573 379 0.0040064102564102569
573 380 0.00066773504273504156
573 381 -0.01233974358974362
573 529 -1.0299920638612292e-18
573 530 -1.4094628242311558e-18
573 531 0.010042735042735016
573 532 -2.6020852139652106e-18
573 533 -7.589415207398531e-18
573 534 0.044017094017093944
573 535 2.2226144535952841e-18
573 536 -9.7578195523695399e-18
573 537 0.010042735042735031
573 568 -4.6620693416876691e-18
573 569 0
573 570 0.025427350427350368
573 571 -6.9388939039072284e-18
573 572 1.1275702593849246e-17
573 573 0.10940170940170929
574 337 -0.0027866809116809076
574 338 -0.0010016025641025636
574 339 -0.0020032051282051263
574 340 -0.007781339031339032
574 341 1.8973538018496328e-19
574 342 1.0842021724855044e-19
574 343 -0.0027866809116809084
574 344 0.0010016025641025634
574 345 0.0020032051282051263
574 376 -0.0042378917378917257
574 377 0.0002003205128205133
574 378 -0.0040064102564102517
574 379 -0.010220797720797726
574 380 2.1684043449710089e-19
574 381 4.3368086899420177e-19
574 382 -0.0042378917378917266
574 383 -0.00020032051282051322
574 384 0.0040064102564102517
574 532 -0.00046296296296296385
574 533 -0.0040064102564102552
574 534 2.439454888092385e-18
574 535 0.011609686609686594
574 536 5.4210108624275222e-20
574 537 -8.6736173798840355e-19
574 538 -0.00046296296296296146
574 539 0.0040064102564102561
574 540 -2.0057740190981832e-18
574 571 0.0044159544159544147
574 572 0.00080128205128205266
574 573 1.0083080204115191e-17
574 574 0.044586894586894577
575 337 -0.0010016025641025636
575 338 -0.0034989316239316189
575 339 -0.0033386752136752118
575 340 1.6263032587282567e-19
575 341 -0.013034188034188035
575 342 -0.013354700854700854
575 343 0.0010016025641025634
575 344 -0.0034989316239316202
575 345 -0.0033386752136752122
575 376 -0.00020032051282051224
575 377 -0.0023237179487179379
575 378 -0.00066773504273503982
575 379 2.1684043449710089e-19
575 380 -0.0073717948717948734
575 381 -0.0026709401709401749
575 382 0.00020032051282051233
575 383 -0.0023237179487179387
575 384 -0.0006677350427350409
575 532 -0.0040064102564102561
575 533 -0.0033119658119658123
575 534 9.7578195523695399e-19
575 535 -1.0842021724855044e-19
575 536 -0.0094017094017094325
575 537 1.1058862159352145e-17
575 538 0.0040064102564102552
575 539 -0.0033119658119658115
575 540 5.6378512969246231e-18
575 571 -0.00080128205128204974
575 572 0.012072649572649571
575 573 1.3010426069826053e-18
575 574 4.3368086899420177e-19
575 575 0.055982905982905992
576 337 -0.0020032051282051263
576 338 -0.0033386752136752114
576 339 -0.0068376068376068255
576 340 1.6263032587282567e-19
576 341 -0.013354700854700856
576 342 -0.026388888888888885
576 343 0.0020032051282051263
576 344 -0.0033386752136752109
576 345 -0.0068376068376068289
576 376 -0.0040064102564102517
576 377 0.00066773504273504405
576 378 -0.012339743589743551
576 379 3.2526065174565133e-19
576 380 0.0026709401709401684
576 381 -0.047435897435897448
576 382 0.0040064102564102509
576 383 0.00066773504273504394
576 384 -0.012339743589743558
576 532 2.1141942363467336e-18
576 533 3.6862873864507151e-18
576 534 0.010042735042735033
576 535 -1.3010426069826053e-18
576 536 1.3010426069826053e-17
576 537 0.044017094017093986
576 538 -1.7347234759768071e-18
576 539 8.2399365108898337e-18
576 540 0.010042735042735038
576 571 1.0299920638612292e-17
576 572 -1.7347234759768071e-18
576 573 0.025427350427350417
576 574 -8.6736173798840355e-19
576 575 -2.1684043449710089e-17
576 576 0.1094017094017094
577 340 -0.0027866809116809128
577 341 -0.0010016025641025638
577 342 -0.0020032051282051272
577 343 -0.0077813390313390251
577 344 4.0657581468206416e-19
577 345 7.589415207398531e-19
577 346 -0.002786680911680908
577 347 0.0010016025641025636
577 348 0.0020032051282051267
577 379 -0.0042378917378917457
577 380 0.00020032051282051252
577 381 -0.0040064102564102569
577 382 -0.010220797720797717
577 383 2.1684043449710089e-19
577 384 1.1926223897340549e-18
577 385 -0.0042378917378917405
577 386 -0.00020032051282051281
577 387 0.0040064102564102569
577 535 -0.00046296296296296542
577 536 -0.0040064102564102569
577 537 -1.6805133673525319e-18
577 538 0.011609686609686594
577 539 8.6736173798840355e-19
577 540 1.3010426069826053e-18
577 541 -0.00046296296296296927
577 542 0.0040064102564102561
577 543 -7.0473141211557788e-19
577 574 0.0044159544159544225
577 575 0.00080128205128204984
577 576 -9.8662397696180903e-18
577 577 0.044586894586894577
578 340 -0.0010016025641025638
578 341 -0.0034989316239316258
578 342 -0.0033386752136752157
578 343 3.7947076036992655e-19
578 344 -0.013034188034188026
578 345 -0.013354700854700852
578 346 0.0010016025641025636
578 347 -0.0034989316239316184
578 348 -0.0033386752136752092
578 379 -0.000200320512820513
578 380 -0.0023237179487179578
578 381 -0.00066773504273504622
578 382 2.1684043449710089e-19
578 383 -0.0073717948717948673
578 384 -0.0026709401709401654
578 385 0.00020032051282051279
578 386 -0.0023237179487179522
578 387 -0.00066773504273504112
578 535 -0.0040064102564102569
578 536 -0.0033119658119658236
578 537 -9.7578195523695399e-19
578 538 9.2157184661267877e-19
578 539 -0.0094017094017094203
578 540 -9.9746599868666408e-18
578 541 0.0040064102564102561
578 542 -0.0033119658119658141
578 543 9.7578195523695399e-19
578 574 -0.00080128205128205277
578 575 0.012072649572649578
578 576 -6.5052130349130266e-18
578 577 1.3010426069826053e-18
578 578 0.055982905982905978
579 340 -0.0020032051282051272
579 341 -0.0033386752136752161
579 342 -0.0068376068376068411
579 343 6.5052130349130266e-19
579 344 -0.013354700854700852
579 345 -0.026388888888888865
579 346 0.0020032051282051272
579 347 -0.0033386752136752101
579 348 -0.0068376068376068255
579 379 -0.0040064102564102561
579 380 0.0006677350427350408
579 381 -0.012339743589743627
579 382 9.7578195523695399e-19
579 383 0.0026709401709401758
579 384 -0.047435897435897413
579 385 0.0040064102564102561
579 386 0.0006677350427350434
579 387 -0.012339743589743596
579 535 -2.1684043449710089e-18
579 536 -2.3852447794681098e-18
579 537 0.010042735042735035
579 538 1.3010426069826053e-18
579 539 -1.0842021724855044e-17
579 540 0.044017094017093972
579 541 -5.9631119486702744e-19
579 542 -2.0599841277224584e-18
579 543 0.010042735042735021
579 574 -9.3241386833753381e-18
579 575 -3.4694469519536142e-18
579 576 0.025427350427350431
579 577 3.4694469519536142e-18
579 578 9.540979117872439e-18
579 579 0.10940170940170935
580 343 -0.0027866809116809089
580 344 -0.0010016025641025638
580 345 -0.0020032051282051267
580 346 -0.0077813390313390277
580 347 3.5236570605778894e-19
580 348 9.7578195523695399e-19
580 349 -0.002786680911680908
580 350 0.0010016025641025634
580 351 0.0020032051282051259
580 382 -0.0042378917378917275
580 383 0.00020032051282051289
580 384 -0.0040064102564102535
580 385 -0.010220797720797717
580 386 4.3368086899420177e-19
580 387 1.0842021724855044e-19
580 388 -0.0042378917378917309
580 389 -0.00020032051282051325
580 390 0.0040064102564102526
580 538 -0.00046296296296296976
580 539 -0.0040064102564102561
580 540 -5.4210108624275222e-19
580 541 0.011609686609686594
580 542 6.5052130349130266e-19
580 543 2.1684043449710089e-18
580 544 -0.00046296296296296049
580 545 0.0040064102564102561
580 546 -3.1983964088322381e-18
580 577 0.0044159544159543991
580 578 0.00080128205128205125
580 579 6.1799523831673753e-18
580 580 0.044586894586894577
581 343 -0.0010016025641025638
581 344 -0.0034989316239316197
581 345 -0.0033386752136752105
581 346 2.7105054312137611e-19
581 347 -0.013034188034188026
581 348 -0.013354700854700849
581 349 0.0010016025641025634
581 350 -0.0034989316239316197
581 351 -0.0033386752136752122
581 382 -0.00020032051282051254
581 383 -0.0023237179487179396
581 384 -0.00066773504273504047
581 385 4.3368086899420177e-19
581 386 -0.0073717948717948699
581 387 -0.0026709401709401727
581 388 0.00020032051282051235
581 389 -0.0023237179487179431
581 390 -0.00066773504273504015
581 538 -0.0040064102564102569
581 539 -0.0033119658119658154
581 540 -3.6862873864507151e-18
581 541 4.87890977618477e-19
581 542 -0.0094017094017094256
581 543 7.1557343384043293e-18
581 544 0.0040064102564102561
581 545 -0.0033119658119658119
581 546 8.2399365108898337e-18
581 577 -0.00080128205128205125
581 578 0.012072649572649558
581 579 3.4694469519536142e-18
581 580 2.1684043449710089e-18
581 581 0.055982905982905971
582 343 -0.0020032051282051272
582 344 -0.0033386752136752096
582 345 -0.0068376068376068298
582 346 1.0842021724855044e-18
582 347 -0.013354700854700849
582 348 -0.026388888888888871
582 349 0.0020032051282051259
582 350 -0.0033386752136752122
582 351 -0.0068376068376068272
582 382 -0.0040064102564102535
582 383 0.00066773504273504275
582 384 -0.012339743589743551
582 385 -1.0842021724855044e-19
582 386 0.0026709401709401675
582 387 -0.04743589743589742
582 388 0.0040064102564102526
582 389 0.00066773504273504459
582 390 -0.012339743589743574
582 538 -6.5052130349130266e-19
582 539 -2.0599841277224584e-18
582 540 0.010042735042735021
582 541 2.1684043449710089e-18
582 542 9.540979117872439e-18
582 543 0.044017094017093972
582 544 -2.7647155398380363e-18
582 545 8.2399365108898337e-18
582 546 0.010042735042735042
582 577 6.1799523831673753e-18
582 578 1.7347234759768071e-18
582 579 0.025427350427350386
582 580 -8.6736173798840355e-19
582 581 -1.9081958235744878e-17
582 582 0.10940170940170935
583 346 -0.0027866809116809136
583 347 -0.0010016025641025638
583 348 -0.0020032051282051276
583 349 -0.0038906695156695177
583 350 -0.00020032051282051238
583 351 -0.00040064102564102449
583 385 -0.0042378917378917422
583 386 0.00020032051282051249
583 387 -0.0040064102564102552
583 388 -0.0051103988603988636
583 389 0.0010016025641025642
583 390 -0.00080128205128204952
583 541 -0.00046296296296296515
583 542 -0.0040064102564102578
583 543 -2.8189256484623115e-18
583 544 0.0058048433048432969
583 545 -0.0008012820512820506
583 546 3.0357660829594124e-18
583 580 0.0044159544159544217
583 581 0.00080128205128204995
583 582 -5.0957502106818708e-18
583 583 0.022293447293447295
584 346 -0.0010016025641025638
584 347 -0.0034989316239316288
584 348 -0.0033386752136752179
584 349 0.00020032051282051306
584 350 -0.0065170940170940191
584 351 -0.0066773504273504323
584 385 -0.00020032051282051303
584 386 -0.0023237179487179539
584 387 -0.00066773504273504611
584 388 0.0010016025641025642
584 389 -0.0036858974358974345
584 390 -0.0013354700854700848
584 541 -0.0040064102564102578
584 542 -0.0033119658119658245
584 543 -5.2041704279304213e-18
584 544 0.00080128205128205212
584 545 -0.0047008547008547171
584 546 3.4694469519536142e-18
584 580 -0.00080128205128205299
584 581 0.012072649572649578
584 582 -3.4694469519536142e-18
584 583 0.0040064102564102578
584 584 0.027991452991453017
585 346 -0.0020032051282051276
585 347 -0.0033386752136752183
585 348 -0.0068376068376068471
585 349 0.00040064102564102628
585 350 -0.0066773504273504323
585 351 -0.013194444444444446
585 385 -0.0040064102564102561
585 386 0.0006677350427350409
585 387 -0.012339743589743612
585 388 0.00080128205128205245
585 389 0.001335470085470089
585 390 -0.023717948717948727
585 541 -3.2526065174565133e-18
585 542 -5.6378512969246231e-18
585 543 0.010042735042735038
585 544 2.6020852139652106e-18
585 545 -2.1684043449710089e-19
585 546 0.022008547008547003
585 580 -4.9873299934333204e-18
585 581 0
585 582 0.025427350427350431
585 583 3.4694469519536142e-18
585 584 6.9388939039072284e-18
585 585 0.054700854700854722
586 391 -0.0051103988603988558
586 392 0.0010016025641025642
586 393 0.0008012820512820518
586 394 -0.0042378917378917353
586 395 0.00020032051282051262
586 396 0.0040064102564102552
586 430 -0.0038906695156695121
586 431 -0.00020032051282051292
586 432 0.00040064102564102563
586 433 -0.0027866809116809102
586 434 -0.001001602564102564
586 435 0.0020032051282051276
586 586 0.022293447293447285
587 391 0.0010016025641025642
587 392 -0.0036858974358974297
587 393 0.0013354700854700857
587 394 -0.00020032051282051303
587 395 -0.0023237179487179457
587 396 0.00066773504273504275
587 430 0.00020032051282051284
587 431 -0.0065170940170940139
587 432 0.0066773504273504236
587 433 -0.001001602564102564
587 434 -0.0034989316239316215
587 435 0.0033386752136752118
587 586 0.0040064102564102561
587 587 0.027991452991452975
588 391 -0.00080128205128205071
588 392 -0.0013354700854700842
588 393 -0.0237179487179487
588 394 0.0040064102564102552
588 395 -0.00066773504273504177
588 396 -0.012339743589743577
588 430 -0.00040064102564102525
588 431 0.0066773504273504236
588 432 -0.013194444444444432
588 433 0.0020032051282051272
588 434 0.0033386752136752118
588 435 -0.0068376068376068307
588 586 8.6736173798840355e-19
588 587 -1.7347234759768071e-18
588 588 0.054700854700854666
589 391 -0.0042378917378917353
589 392 -0.00020032051282051268
589 393 -0.0040064102564102552
589 394 -0.010220797720797713
589 395 2.1684043449710089e-19
589 396 1.0842021724855044e-19
589 397 -0.004237891737891737
589 398 0.00020032051282051268
589 399 0.0040064102564102561
589 430 -0.0027866809116809102
589 431 0.001001602564102564
589 432 -0.0020032051282051276
589 433 -0.0077813390313390251
589 434 -1.8973538018496328e-19
589 435 1.6263032587282567e-19
589 436 -0.0027866809116809106
589 437 -0.0010016025641025642
589 438 0.0020032051282051276
589 586 0.0044159544159544104
589 587 -0.00080128205128205147
589 588 -5.4210108624275222e-19
589 589 0.044586894586894583
590 391 0.000200320512820513
590 392 -0.0023237179487179457
590 393 0.00066773504273504264
590 394 2.1684043449710089e-19
590 395 -0.0073717948717948612
590 396 0.0026709401709401719
590 397 -0.000200320512820513
590 398 -0.002323717948717947
590 399 0.00066773504273504253
590 430 0.001001602564102564
590 431 -0.0034989316239316215
590 432 0.0033386752136752118
590 433 -1.6263032587282567e-19
590 434 -0.01303418803418803
590 435 0.013354700854700849
590 436 -0.0010016025641025642
590 437 -0.0034989316239316228
590 438 0.0033386752136752127
590 586 0.00080128205128205093
590 587 0.012072649572649566
590 588 -8.6736173798840355e-19
590 589 8.6736173798840355e-19
590 590 0.055982905982905964
591 391 -0.0040064102564102552
591 392 -0.00066773504273504188
591 393 -0.012339743589743577
591 394 1.0842021724855044e-19
591 395 -0.0026709401709401693
591 396 -0.047435897435897406
591 397 0.0040064102564102561
591 398 -0.00066773504273504253
591 399 -0.012339743589743582
591 430 -0.0020032051282051272
591 431 0.0033386752136752118
591 432 -0.0068376068376068298
591 433 2.1684043449710089e-19
591 434 0.013354700854700849
591 435 -0.026388888888888871
591 436 0.0020032051282051276
591 437 0.0033386752136752131
591 438 -0.0068376068376068324
591 586 -4.3368086899420177e-19
591 587 -8.6736173798840355e-19
591 588 0.025427350427350413
591 589 -1.7347234759768071e-18
591 590 -4.3368086899420177e-18
591 591 0.10940170940170937
592 394 -0.0042378917378917344
592 395 -0.00020032051282051262
592 396 -0.0040064102564102552
592 397 -0.010220797720797712
592 398 0
592 399 6.5052130349130266e-19
592 400 -0.0042378917378917344
592 401 0.0002003205128205126
592 402 0.0040064102564102552
592 433 -0.0027866809116809093
592 434 0.0010016025641025642
592 435 -0.0020032051282051272
592 436 -0.007781339031339026
592 437 -2.1684043449710089e-19
592 438 2.7105054312137611e-19
592 439 -0.0027866809116809097
592 440 -0.0010016025641025642
592 441 0.0020032051282051272
592 589 0.0044159544159544113
592 590 -0.00080128205128205147
592 591 1.0842021724855044e-18
592 592 0.044586894586894583
593 394 0.000200320512820513
593 395 -0.0023237179487179444
593 396 0.00066773504273504242
593 397 0
593 398 -0.0073717948717948595
593 399 0.0026709401709401727
593 400 -0.00020032051282051311
593 401 -0.0023237179487179452
593 402 0.00066773504273504307
593 433 0.0010016025641025642
593 434 -0.0034989316239316219
593 435 0.0033386752136752114
593 436 -2.7105054312137611e-20
593 437 -0.013034188034188031
593 438 0.013354700854700852
593 439 -0.0010016025641025642
593 440 -0.0034989316239316223
593 441 0.0033386752136752127
593 589 0.00080128205128205082
593 590 0.012072649572649566
593 591 -1.7347234759768071e-18
593 592 2.1684043449710089e-18
593 593 0.055982905982905964
594 394 -0.0040064102564102552
594 395 -0.00066773504273504231
594 396 -0.012339743589743574
594 397 9.7578195523695399e-19
594 398 -0.0026709401709401701
594 399 -0.047435897435897406
594 400 0.0040064102564102543
594 401 -0.00066773504273504188
594 402 -0.012339743589743577
594 433 -0.0020032051282051272
594 434 0.0033386752136752118
594 435 -0.0068376068376068289
594 436 3.2526065174565133e-19
594 437 0.013354700854700852
594 438 -0.026388888888888871
594 439 0.0020032051282051272
594 440 0.0033386752136752122
594 441 -0.0068376068376068307
594 589 7.589415207398531e-19
594 590 -8.6736173798840355e-19
594 591 0.025427350427350413
594 592 -1.7347234759768071e-18
594 593 -2.6020852139652106e-18
594 594 0.10940170940170937
595 397 -0.0042378917378917361
595 398 -0.00020032051282051276
595 399 -0.0040064102564102552
595 400 -0.01022079772079771
595 401 0
595 402 2.1684043449710089e-19
595 403 -0.0042378917378917344
595 404 0.00020032051282051262
595 405 0.0040064102564102561
595 436 -0.0027866809116809106
595 437 0.0010016025641025642
595 438 -0.0020032051282051276
595 439 -0.0077813390313390251
595 440 -1.6263032587282567e-19
595 441 1.0842021724855044e-19
595 442 -0.0027866809116809097
595 443 -0.0010016025641025642
595 444 0.0020032051282051276
595 592 0.0044159544159544121
595 593 -0.0008012820512820519
595 594 -3.2526065174565133e-19
595 595 0.044586894586894577
596 397 0.00020032051282051287
596 398 -0.0023237179487179457
596 399 0.00066773504273504221
596 400 2.1684043449710089e-19
596 401 -0.0073717948717948595
596 402 0.0026709401709401701
596 403 -0.00020032051282051292
596 404 -0.0023237179487179452
596 405 0.00066773504273504231
596 436 0.001001602564102564
596 437 -0.0034989316239316223
596 438 0.0033386752136752118
596 439 -1.6263032587282567e-19
596 440 -0.01303418803418803
596 441 0.013354700854700849
596 442 -0.0010016025641025642
596 443 -0.0034989316239316219
596 444 0.0033386752136752114
596 592 0.0008012820512820506
596 593 0.012072649572649566
596 594 4.3368086899420177e-19
596 595 8.6736173798840355e-19
596 596 0.055982905982905964
597 397 -0.0040064102564102552
597 398 -0.00066773504273504242
597 399 -0.012339743589743579
597 400 0
597 401 -0.0026709401709401697
597 402 -0.047435897435897399
597 403 0.0040064102564102552
597 404 -0.00066773504273504199
597 405 -0.012339743589743575
597 436 -0.0020032051282051272
597 437 0.0033386752136752122
597 438 -0.0068376068376068315
597 439 5.4210108624275222e-20
597 440 0.013354700854700851
597 441 -0.026388888888888865
597 442 0.0020032051282051276
597 443 0.0033386752136752114
597 444 -0.0068376068376068307
597 592 -7.589415207398531e-19
597 593 0
597 594 0.025427350427350413
597 595 1.7347234759768071e-18
597 596 -3.4694469519536142e-18
597 597 0.10940170940170935
598 400 -0.0042378917378917344
598 401 -0.00020032051282051271
598 402 -0.0040064102564102552
598 403 -0.010220797720797717
598 404 0
598 405 1.3010426069826053e-18
598 406 -0.0042378917378917361
598 407 0.0002003205128205126
598 408 0.0040064102564102561
598 439 -0.0027866809116809089
598 440 0.0010016025641025642
598 441 -0.0020032051282051272
598 442 -0.0077813390313390286
598 443 -1.8973538018496328e-19
598 444 4.3368086899420177e-19
598 445 -0.002786680911680911
598 446 -0.0010016025641025642
598 447 0.0020032051282051276
598 595 0.0044159544159544078
598 596 -0.00080128205128205125
598 597 -5.4210108624275222e-19
598 598 0.04458689458689459
599 400 0.000200320512820513
599 401 -0.0023237179487179457
599 402 0.00066773504273504231
599 403 0
599 404 -0.0073717948717948647
599 405 0.0026709401709401736
599 406 -0.00020032051282051308
599 407 -0.002323717948717947
599 408 0.00066773504273504351
599 439 0.0010016025641025642
599 440 -0.0034989316239316215
599 441 0.0033386752136752114
599 442 -8.1315162936412833e-20
599 443 -0.013034188034188033
599 444 0.013354700854700856
599 445 -0.0010016025641025642
599 446 -0.0034989316239316241
599 447 0.0033386752136752144
599 595 0.00080128205128205104
599 596 0.012072649572649563
599 597 -2.1684043449710089e-18
599 598 1.7347234759768071e-18
599 599 0.055982905982905985
600 400 -0.0040064102564102561
600 401 -0.00066773504273504221
600 402 -0.012339743589743577
600 403 6.5052130349130266e-19
600 404 -0.0026709401709401684
600 405 -0.04743589743589742
600 406 0.0040064102564102552
600 407 -0.00066773504273504188
600 408 -0.012339743589743586
600 439 -0.0020032051282051276
600 440 0.0033386752136752109
600 441 -0.0068376068376068289
600 442 2.7105054312137611e-19
600 443 0.013354700854700852
600 444 -0.026388888888888871
600 445 0.0020032051282051276
600 446 0.0033386752136752144
600 447 -0.0068376068376068333
600 595 -4.3368086899420177e-19
600 596 -1.3010426069826053e-18
600 597 0.025427350427350406
600 598 -8.6736173798840355e-19
600 599 -4.3368086899420177e-18
600 600 0.10940170940170939
601 403 -0.0042378917378917387
601 404 -0.00020032051282051273
601 405 -0.0040064102564102561
601 406 -0.010220797720797715
601 407 -2.1684043449710089e-19
601 408 -5.4210108624275222e-19
601 409 -0.004237891737891737
601 410 0.00020032051282051281
601 411 0.0040064102564102561
601 442 -0.0027866809116809119
601 443 0.0010016025641025642
601 444 -0.0020032051282051276
601 445 -0.0077813390313390277
601 446 -2.1684043449710089e-19
601 447 4.3368086899420177e-19
601 448 -0.0027866809116809097
601 449 -0.001001602564102564
601 450 0.0020032051282051272
601 598 0.0044159544159544182
601 599 -0.00080128205128205169
601 600 -4.3368086899420177e-19
601 601 0.044586894586894583
602 403 0.00020032051282051295
602 404 -0.0023237179487179483
602 405 0.00066773504273504275
602 406 0
602 407 -0.007371794871794863
602 408 0.0026709401709401706
602 409 -0.00020032051282051279
602 410 -0.0023237179487179483
602 411 0.00066773504273504188
602 442 0.0010016025641025642
602 443 -0.0034989316239316245
602 444 0.0033386752136752144
602 445 -2.9815559743351372e-19
602 446 -0.013034188034188035
602 447 0.013354700854700856
602 448 -0.001001602564102564
602 449 -0.0034989316239316215
602 450 0.0033386752136752105
602 598 0.0008012820512820506
602 599 0.012072649572649571
602 600 -1.7347234759768071e-18
602 601 0
602 602 0.055982905982905978
603 403 -0.0040064102564102561
603 404 -0.00066773504273504264
603 405 -0.012339743589743589
603 406 -1.0842021724855044e-19
603 407 -0.0026709401709401701
603 408 -0.047435897435897413
603 409 0.0040064102564102561
603 410 -0.00066773504273504307
603 411 -0.012339743589743584
603 442 -0.0020032051282051276
603 443 0.0033386752136752148
603 444 -0.0068376068376068359
603 445 5.9631119486702744e-19
603 446 0.013354700854700854
603 447 -0.026388888888888875
603 448 0.0020032051282051272
603 449 0.0033386752136752114
603 450 -0.0068376068376068298
603 598 -6.5052130349130266e-19
603 599 -1.7347234759768071e-18
603 600 0.025427350427350427
603 601 -8.6736173798840355e-19
603 602 -6.9388939039072284e-18
603 603 0.10940170940170939
604 406 -0.0042378917378917335
604 407 -0.00020032051282051246
604 408 -0.0040064102564102543
604 409 -0.010220797720797715
604 410 2.1684043449710089e-19
604 411 -4.3368086899420177e-19
604 412 -0.0042378917378917379
604 413 0.00020032051282051238
604 414 0.0040064102564102561
604 445 -0.0027866809116809102
604 446 0.0010016025641025642
604 447 -0.0020032051282051276
604 448 -0.0077813390313390277
604 449 -1.8973538018496328e-19
604 450 1.0842021724855044e-19
604 451 -0.0027866809116809123
604 452 -0.0010016025641025642
604 453 0.0020032051282051276
604 601 0.0044159544159544095
604 602 -0.0008012820512820506
604 603 1.6263032587282567e-18
604 604 0.044586894586894583
605 406 0.00020032051282051327
605 407 -0.0023237179487179431
605 408 0.00066773504273504329
605 409 2.1684043449710089e-19
605 410 -0.0073717948717948621
605 411 0.0026709401709401719
605 412 -0.00020032051282051322
605 413 -0.0023237179487179483
605 414 0.00066773504273504329
605 445 0.0010016025641025642
605 446 -0.0034989316239316223
605 447 0.0033386752136752122
605 448 -1.3552527156068805e-19
605 449 -0.013034188034188033
605 450 0.013354700854700852
605 451 -0.0010016025641025642
605 452 -0.0034989316239316262
605 453 0.0033386752136752148
605 601 0.0008012820512820518
605 602 0.012072649572649564
605 603 4.3368086899420177e-19
605 604 8.6736173798840355e-19
605 605 0.055982905982905978
606 406 -0.0040064102564102552
606 407 -0.00066773504273504101
606 408 -0.01233974358974357
606 409 -3.2526065174565133e-19
606 410 -0.0026709401709401701
606 411 -0.047435897435897406
606 412 0.0040064102564102561
606 413 -0.00066773504273504264
606 414 -0.012339743589743591
606 445 -0.0020032051282051276
606 446 0.0033386752136752118
606 447 -0.0068376068376068307
606 448 1.0842021724855044e-19
606 449 0.013354700854700852
606 450 -0.026388888888888871
606 451 0.002003205128205128
606 452 0.0033386752136752153
606 453 -0.0068376068376068376
606 601 1.6263032587282567e-18
606 602 4.3368086899420177e-19
606 603 0.025427350427350413
606 604 -5.2041704279304213e-18
606 605 -3.4694469519536142e-18
606 606 0.10940170940170939
607 409 -0.0042378917378917335
607 410 -0.00020032051282051276
607 411 -0.0040064102564102543
607 412 -0.01022079772079771
607 413 -2.1684043449710089e-19
607 414 -1.0842021724855044e-19
607 415 -0.0042378917378917344
607 416 0.00020032051282051317
607 417 0.0040064102564102561
607 448 -0.0027866809116809102
607 449 0.001001602564102564
607 450 -0.0020032051282051272
607 451 -0.0077813390313390234
607 452 -3.7947076036992655e-19
607 453 4.3368086899420177e-19
607 454 -0.0027866809116809067
607 455 -0.001001602564102564
607 456 0.0020032051282051272
607 604 0.0044159544159544182
607 605 -0.00080128205128205212
607 606 1.8431436932253575e-18
607 607 0.044586894586894563
608 409 0.00020032051282051279
608 410 -0.0023237179487179435
608 411 0.00066773504273504112
608 412 -4.3368086899420177e-19
608 413 -0.0073717948717948612
608 414 0.0026709401709401701
608 415 -0.00020032051282051254
608 416 -0.0023237179487179461
608 417 0.00066773504273503852
608 448 0.001001602564102564
608 449 -0.0034989316239316223
608 450 0.0033386752136752131
608 451 -4.3368086899420177e-19
608 452 -0.013034188034188026
608 453 0.013354700854700847
608 454 -0.001001602564102564
608 455 -0.0034989316239316163
608 456 0.0033386752136752075
608 604 0.00080128205128205017
608 605 0.012072649572649575
608 606 -3.903127820947816e-18
608 607 0
608 608 0.055982905982905944
609 409 -0.0040064102564102543
609 410 -0.00066773504273504437
609 411 -0.012339743589743577
609 412 -2.1684043449710089e-19
609 413 -0.0026709401709401675
609 414 -0.047435897435897392
609 415 0.0040064102564102552
609 416 -0.00066773504273504427
609 417 -0.012339743589743574
609 448 -0.0020032051282051272
609 449 0.0033386752136752135
609 450 -0.0068376068376068315
609 451 3.2526065174565133e-19
609 452 0.013354700854700845
609 453 -0.026388888888888858
609 454 0.0020032051282051272
609 455 0.0033386752136752075
609 456 -0.0068376068376068211
609 604 2.0599841277224584e-18
609 605 -2.6020852139652106e-18
609 606 0.025427350427350427
609 607 -4.3368086899420177e-18
609 608 6.0715321659188248e-18
609 609 0.10940170940170933
610 412 -0.0042378917378917318
610 413 -0.00020032051282051219
610 414 -0.0040064102564102543
610 415 -0.010220797720797706
610 416 -6.5052130349130266e-19
610 417 5.4210108624275222e-19
610 418 -0.0042378917378917361
610 419 0.000200320512820513
610 420 0.0040064102564102552
610 451 -0.0027866809116809093
610 452 0.0010016025641025642
610 453 -0.0020032051282051276
610 454 -0.0077813390313390234
610 455 -6.2341624917916505e-19
610 456 -5.4210108624275222e-20
610 457 -0.0027866809116809123
610 458 -0.0010016025641025642
610 459 0.002003205128205128
610 607 0.0044159544159543965
610 608 -0.00080128205128204952
610 609 1.5178830414797062e-18
610 610 0.04458689458689457
611 412 0.00020032051282051352
611 413 -0.0023237179487179431
611 414 0.00066773504273504329
611 415 -6.5052130349130266e-19
611 416 -0.0073717948717948586
611 417 0.0026709401709401693
611 418 -0.00020032051282051273
611 419 -0.0023237179487179452
611 420 0.00066773504273504286
611 451 0.0010016025641025642
611 452 -0.003498931623931621
611 453 0.0033386752136752109
611 454 -5.4210108624275222e-19
611 455 -0.013034188034188024
611 456 0.013354700854700845
611 457 -0.001001602564102564
611 458 -0.0034989316239316245
611 459 0.0033386752136752135
611 607 0.00080128205128205299
611 608 0.012072649572649547
611 609 -6.0715321659188248e-18
611 610 -2.1684043449710089e-18
611 611 0.055982905982905951
612 412 -0.0040064102564102543
612 413 -0.0006677350427350396
612 414 -0.012339743589743562
612 415 0
612 416 -0.0026709401709401693
612 417 -0.047435897435897378
612 418 0.0040064102564102552
612 419 -0.00066773504273504296
612 420 -0.012339743589743581
612 451 -0.0020032051282051276
612 452 0.0033386752136752114
612 453 -0.0068376068376068281
612 454 -2.1684043449710089e-19
612 455 0.013354700854700845
612 456 -0.026388888888888858
612 457 0.002003205128205128
612 458 0.0033386752136752127
612 459 -0.0068376068376068402
612 607 1.0842021724855044e-18
612 608 -5.6378512969246231e-18
612 609 0.025427350427350379
612 610 -1.7347234759768071e-18
612 611 -8.6736173798840355e-18
612 612 0.10940170940170935
613 415 -0.0042378917378917361
613 416 -0.0002003205128205123
613 417 -0.0040064102564102552
613 418 -0.010220797720797715
613 419 4.3368086899420177e-19
613 420 6.5052130349130266e-19
613 421 -0.0042378917378917379
613 422 0.00020032051282051222
613 423 0.0040064102564102569
613 454 -0.0027866809116809089
613 455 0.0010016025641025644
613 456 -0.0020032051282051263
613 457 -0.0077813390313390312
613 458 -1.6263032587282567e-19
613 459 2.7105054312137611e-19
613 460 -0.0027866809116809102
613 461 -0.0010016025641025644
613 462 0.0020032051282051267
613 610 0.0044159544159544165
613 611 -0.00080128205128204995
613 612 -2.1684043449710089e-19
613 613 0.04458689458689459
614 415 0.00020032051282051336
614 416 -0.0023237179487179461
614 417 0.00066773504273504676
614 418 4.3368086899420177e-19
614 419 -0.0073717948717948621
614 420 0.0026709401709401727
614 421 -0.00020032051282051341
614 422 -0.0023237179487179483
614 423 0.00066773504273504535
614 454 0.0010016025641025644
614 455 -0.0034989316239316223
614 456 0.0033386752136752127
614 457 -1.3552527156068805e-19
614 458 -0.013034188034188036
614 459 0.013354700854700863
614 460 -0.0010016025641025644
614 461 -0.0034989316239316245
614 462 0.0033386752136752148
614 610 0.00080128205128205245
614 611 0.012072649572649573
614 612 4.7704895589362195e-18
614 613 4.3368086899420177e-19
614 614 0.055982905982905999
615 415 -0.0040064102564102561
615 416 -0.00066773504273503928
615 417 -0.012339743589743584
615 418 7.589415207398531e-19
615 419 -0.0026709401709401719
615 420 -0.04743589743589742
615 421 0.0040064102564102561
615 422 -0.00066773504273504025
615 423 -0.012339743589743593
615 454 -0.0020032051282051267
615 455 0.0033386752136752122
615 456 -0.0068376068376068263
615 457 2.7105054312137611e-19
615 458 0.013354700854700861
615 459 -0.026388888888888882
615 460 0.0020032051282051267
615 461 0.0033386752136752148
615 462 -0.0068376068376068298
615 610 -5.4210108624275222e-19
615 611 5.6378512969246231e-18
615 612 0.02542735042735042
615 613 -3.4694469519536142e-18
615 614 -9.540979117872439e-18
615 615 0.1094017094017094
616 418 -0.0042378917378917327
616 419 -0.00020032051282051308
616 420 -0.0040064102564102535
616 421 -0.01022079772079771
616 422 6.5052130349130266e-19
616 423 2.1684043449710089e-18
616 424 -0.0042378917378917257
616 425 0.00020032051282051268
616 426 0.0040064102564102535
616 457 -0.0027866809116809119
616 458 0.0010016025641025638
616 459 -0.0020032051282051276
616 460 -0.0077813390313390234
616 461 -2.7105054312137611e-20
616 462 1.0842021724855044e-18
616 463 -0.0027866809116809084
616 464 -0.0010016025641025642
616 465 0.0020032051282051272
616 613 0.0044159544159544182
616 614 -0.00080128205128205299
616 615 2.8189256484623115e-18
616 616 0.044586894586894577
617 418 0.00020032051282051254
617 419 -0.0023237179487179426
617 420 0.0006677350427350408
617 421 6.5052130349130266e-19
617 422 -0.0073717948717948612
617 423 0.0026709401709401736
617 424 -0.000200320512820513
617 425 -0.0023237179487179366
617 426 0.00066773504273504199
617 457 0.0010016025641025638
617 458 -0.0034989316239316249
617 459 0.0033386752136752153
617 460 -2.7105054312137611e-20
617 461 -0.01303418803418803
617 462 0.013354700854700845
617 463 -0.0010016025641025642
617 464 -0.0034989316239316189
617 465 0.0033386752136752088
617 613 0.0008012820512820493
617 614 0.012072649572649573
617 615 -3.0357660829594124e-18
617 616 2.6020852139652106e-18
617 617 0.055982905982905957
618 418 -0.0040064102564102543
618 419 -0.00066773504273504459
618 420 -0.012339743589743575
618 421 1.7347234759768071e-18
618 422 -0.0026709401709401641
618 423 -0.047435897435897392
618 424 0.0040064102564102526
618 425 -0.00066773504273504101
618 426 -0.012339743589743542
618 457 -0.0020032051282051276
618 458 0.003338675213675214
618 459 -0.0068376068376068411
618 460 1.0299920638612292e-18
618 461 0.013354700854700845
618 462 -0.026388888888888861
618 463 0.0020032051282051272
618 464 0.0033386752136752083
618 465 -0.0068376068376068246
618 613 2.0599841277224584e-18
618 614 -2.6020852139652106e-18
618 615 0.025427350427350427
618 616 5.2041704279304213e-18
618 617 4.3368086899420177e-18
618 618 0.10940170940170933
619 421 -0.0042378917378917413
619 422 -0.00020032051282051273
619 423 -0.0040064102564102578
619 424 -0.01022079772079771
619 425 8.6736173798840355e-19
619 426 4.4452289071905682e-18
619 427 -0.0042378917378917301
619 428 0.00020032051282051214
619 429 0.0040064102564102543
619 460 -0.0027866809116809089
619 461 0.0010016025641025642
619 462 -0.002003205128205128
619 463 -0.007781339031339026
619 464 5.4210108624275222e-20
619 465 1.3552527156068805e-18
619 466 -0.0027866809116809093
619 467 -0.0010016025641025644
619 468 0.0020032051282051267
619 616 0.0044159544159544
619 617 -0.00080128205128205169
619 618 -8.2399365108898337e-18
619 619 0.044586894586894577
620 421 0.00020032051282051295
620 422 -0.0023237179487179526
620 423 0.00066773504273504253
620 424 6.5052130349130266e-19
620 425 -0.0073717948717948612
620 426 0.0026709401709401753
620 427 -0.00020032051282051349
620 428 -0.0023237179487179405
620 429 0.00066773504273504633
620 460 0.001001602564102564
620 461 -0.0034989316239316202
620 462 0.0033386752136752088
620 463 1.0842021724855044e-19
620 464 -0.013034188034188031
620 465 0.013354700854700854
620 466 -0.0010016025641025644
620 467 -0.0034989316239316236
620 468 0.0033386752136752148
620 616 0.0008012820512820506
620 617 0.012072649572649554
620 618 0
620 619 3.4694469519536142e-18
620 620 0.055982905982905964
621 421 -0.0040064102564102578
621 422 -0.0006677350427350421
621 423 -0.0123397435897436
621 424 4.7704895589362195e-18
621 425 -0.0026709401709401667
621 426 -0.047435897435897399
621 427 0.0040064102564102535
621 428 -0.0006677350427350396
621 429 -0.012339743589743568
621 460 -0.0020032051282051276
621 461 0.0033386752136752088
621 462 -0.0068376068376068281
621 463 1.5178830414797062e-18
621 464 0.013354700854700852
621 465 -0.026388888888888865
621 466 0.0020032051282051267
621 467 0.003338675213675214
621 468 -0.0068376068376068272
621 616 -8.6736173798840355e-18
621 617 -3.0357660829594124e-18
621 618 0.025427350427350386
621 619 1.214306433183765e-17
621 620 -8.6736173798840355e-18
621 621 0.10940170940170937
622 424 -0.0042378917378917413
622 425 -0.00020032051282051319
622 426 -0.0040064102564102569
622 427 -0.0051103988603988619
622 428 -0.0010016025641025634
622 429 -0.00080128205128204952
622 463 -0.0027866809116809132
622 464 0.0010016025641025638
622 465 -0.002003205128205128
622 466 -0.0038906695156695173
622 467 0.00020032051282051292
622 468 -0.00040064102564102449
622 619 0.0044159544159544217
622 620 -0.00080128205128205364
622 621 -5.4210108624275222e-18
622 622 0.022293447293447295
623 424 0.00020032051282051241
623 425 -0.0023237179487179522
623 426 0.00066773504273504199
623 427 -0.0010016025641025636
623 428 -0.0036858974358974354
623 429 0.0013354700854700853
623 463 0.001001602564102564
623 464 -0.0034989316239316258
623 465 0.0033386752136752157
623 466 -0.00020032051282051273
623 467 -0.0065170940170940217
623 468 0.0066773504273504296
623 619 0.00080128205128204876
623 620 0.01207264957264958
623 621 -8.6736173798840355e-19
623 622 -0.0040064102564102526
623 623 0.027991452991452996
624 424 -0.0040064102564102569
624 425 -0.00066773504273504492
624 426 -0.012339743589743607
624 427 0.00080128205128205245
624 428 -0.0013354700854700857
624 429 -0.023717948717948724
624 463 -0.002003205128205128
624 464 0.0033386752136752153
624 465 -0.0068376068376068463
624 466 0.00040064102564102622
624 467 0.0066773504273504314
624 468 -0.013194444444444446
624 619 -5.9631119486702744e-18
624 620 -5.2041704279304213e-18
624 621 0.025427350427350434
624 622 6.0715321659188248e-18
624 623 -1.214306433183765e-17
624 624 0.054700854700854729
625 391 -0.0038906695156695117
625 392 0.00020032051282051289
625 393 0.00040064102564102563
625 394 -0.0027866809116809097
625 395 0.0010016025641025638
625 396 0.0020032051282051272
625 430 -0.01022079772079771
625 431 2.1684043449710089e-19
625 432 0.0016025641025641029
625 433 -0.0084757834757834705
625 434 -3.5236570605778894e-19
625 435 0.0080128205128205121
625 469 -0.0038906695156695125
625 470 -0.00020032051282051287
625 471 0.00040064102564102574
625 472 -0.0027866809116809102
625 473 -0.001001602564102564
625 474 0.0020032051282051276
625 586 0.0058048433048433013
625 587 0.00080128205128205082
625 588 -4.3368086899420177e-19
625 589 -0.00046296296296296428
625 590 0.0040064102564102561
625 591 -1.6263032587282567e-19
625 625 0.044586894586894577
626 391 -0.00020032051282051271
626 392 -0.0065170940170940122
626 393 -0.0066773504273504236
626 394 0.0010016025641025638
626 395 -0.003498931623931621
626 396 -0.0033386752136752118
626 430 2.1684043449710089e-19
626 431 -0.0073717948717948604
626 432 8.6736173798840355e-19
626 433 -4.0657581468206416e-19
626 434 -0.0046474358974358913
626 435 8.6736173798840355e-19
626 469 0.00020032051282051281
626 470 -0.0065170940170940139
626 471 0.0066773504273504236
626 472 -0.001001602564102564
626 473 -0.0034989316239316219
626 474 0.0033386752136752118
626 586 -0.00080128205128205147
626 587 -0.0047008547008547024
626 588 -4.3368086899420177e-19
626 589 0.0040064102564102561
626 590 -0.0033119658119658115
626 591 -5.4210108624275222e-19
626 625 4.3368086899420177e-19
626 626 0.055982905982905957
627 391 -0.00040064102564102525
627 392 -0.0066773504273504236
627 393 -0.013194444444444432
627 394 0.0020032051282051272
627 395 -0.0033386752136752114
627 396 -0.0068376068376068289
627 430 -0.0016025641025641016
627 431 8.6736173798840355e-19
627 432 -0.047435897435897392
627 433 0.0080128205128205104
627 434 7.589415207398531e-19
627 435 -0.024679487179487154
627 469 -0.0004006410256410253
627 470 0.0066773504273504244
627 471 -0.013194444444444432
627 472 0.0020032051282051276
627 473 0.0033386752136752118
627 474 -0.0068376068376068315
627 586 -4.3368086899420177e-19
627 587 -2.1684043449710089e-19
627 588 0.022008547008546993
627 589 -2.7105054312137611e-19
627 590 -2.1684043449710089e-19
627 591 0.010042735042735035
627 625 0
627 626 -4.3368086899420177e-18
627 627 0.10940170940170935
628 391 -0.0027866809116809093
628 392 -0.0010016025641025638
628 393 -0.0020032051282051267
628 394 -0.0077813390313390242
628 395 1.6263032587282567e-19
628 396 -1.6263032587282567e-19
628 397 -0.0027866809116809102
628 398 0.001001602564102564
628 399 0.0020032051282051276
628 430 -0.0084757834757834705
628 431 2.439454888092385e-19
628 432 -0.0080128205128205104
628 433 -0.020441595441595423
628 434 2.1684043449710089e-19
628 435 7.589415207398531e-19
628 436 -0.0084757834757834723
628 437 -3.5236570605778894e-19
628 438 0.0080128205128205121
628 469 -0.0027866809116809102
628 470 0.001001602564102564
628 471 -0.0020032051282051276
628 472 -0.0077813390313390268
628 473 -2.1684043449710089e-19
628 474 3.2526065174565133e-19
628 475 -0.0027866809116809106
628 476 -0.0010016025641025642
628 477 0.0020032051282051276
628 586 -0.00046296296296296439
628 587 -0.0040064102564102552
628 588 5.4210108624275222e-20
628 589 0.011609686609686601
628 590 -7.589415207398531e-19
628 591 -1.3010426069826053e-18
628 592 -0.00046296296296296428
628 593 0.0040064102564102561
628 594 1.6263032587282567e-19
628 625 0.0088319088319088208
628 626 -4.3368086899420177e-19
628 627 -6.5052130349130266e-19
628 628 0.089173789173789153
629 391 -0.0010016025641025638
629 392 -0.003498931623931621
629 393 -0.0033386752136752118
629 394 8.1315162936412833e-20
629 395 -0.013034188034188026
629 396 -0.013354700854700849
629 397 0.0010016025641025642
629 398 -0.0034989316239316219
629 399 -0.0033386752136752122
629 430 3.7947076036992655e-19
629 431 -0.0046474358974358913
629 432 5.4210108624275222e-19
629 433 -2.1684043449710089e-19
629 434 -0.014743589743589726
629 435 3.0357660829594124e-18
629 436 -2.9815559743351372e-19
629 437 -0.0046474358974358931
629 438 8.6736173798840355e-19
629 469 0.001001602564102564
629 470 -0.0034989316239316219
629 471 0.0033386752136752118
629 472 -2.7105054312137611e-19
629 473 -0.01303418803418803
629 474 0.013354700854700851
629 475 -0.0010016025641025642
629 476 -0.0034989316239316228
629 477 0.0033386752136752122
629 586 -0.0040064102564102552
629 587 -0.0033119658119658115
629 588 -2.1684043449710089e-19
629 589 -4.87890977618477e-19
629 590 -0.0094017094017094065
629 591 2.1684043449710089e-19
629 592 0.0040064102564102561
629 593 -0.0033119658119658115
629 594 -1.5178830414797062e-18
629 625 -3.2526065174565133e-19
629 626 0.024145299145299136
629 627 -2.6020852139652106e-18
629 628 8.6736173798840355e-19
629 629 0.11196581196581191
630 391 -0.0020032051282051272
630 392 -0.0033386752136752114
630 393 -0.0068376068376068289
630 394 -5.4210108624275222e-20
630 395 -0.013354700854700849
630 396 -0.026388888888888865
630 397 0.0020032051282051276
630 398 -0.0033386752136752122
630 399 -0.0068376068376068315
630 430 -0.0080128205128205121
630 431 6.5052130349130266e-19
630 432 -0.024679487179487158
630 433 5.4210108624275222e-19
630 434 1.5178830414797062e-18
630 435 -0.094871794871794826
630 436 0.0080128205128205121
630 437 7.589415207398531e-19
630 438 -0.024679487179487161
630 469 -0.0020032051282051276
630 470 0.0033386752136752118
630 471 -0.0068376068376068324
630 472 2.1684043449710089e-19
630 473 0.013354700854700851
630 474 -0.026388888888888871
630 475 0.0020032051282051276
630 476 0.0033386752136752131
630 477 -0.0068376068376068341
630 586 0
630 587 1.0842021724855044e-19
630 588 0.010042735042735035
630 589 -1.3010426069826053e-18
630 590 1.5178830414797062e-18
630 591 0.044017094017093993
630 592 5.4210108624275222e-19
630 593 -1.5178830414797062e-18
630 594 0.010042735042735035
630 625 -7.589415207398531e-19
630 626 -2.6020852139652106e-18
630 627 0.050854700854700827
630 628 -5.2041704279304213e-18
630 629 -9.540979117872439e-18
630 630 0.21880341880341875
631 394 -0.0027866809116809084
631 395 -0.001001602564102564
631 396 -0.0020032051282051272
631 397 -0.0077813390313390242
631 398 1.8973538018496328e-19
631 399 5.4210108624275222e-20
631 400 -0.0027866809116809097
631 401 0.001001602564102564
631 402 0.0020032051282051272
631 433 -0.0084757834757834688
631 434 3.7947076036992655e-19
631 435 -0.0080128205128205104
631 436 -0.020441595441595423
631 437 0
631 438 1.3010426069826053e-18
631 439 -0.0084757834757834688
631 440 -4.3368086899420177e-19
631 441 0.0080128205128205121
631 472 -0.0027866809116809093
631 473 0.0010016025641025642
631 474 -0.0020032051282051276
631 475 -0.007781339031339026
631 476 -2.439454888092385e-19
631 477 2.7105054312137611e-19
631 478 -0.0027866809116809102
631 479 -0.0010016025641025644
631 480 0.0020032051282051272
631 589 -0.00046296296296296406
631 590 -0.0040064102564102543
631 591 6.5052130349130266e-19
631 592 0.011609686609686601
631 593 -2.1684043449710089e-19
631 594 -1.3010426069826053e-18
631 595 -0.00046296296296296417
631 596 0.0040064102564102561
631 597 -5.9631119486702744e-19
631 628 0.0088319088319088225
631 629 -7.0473141211557788e-19
631 630 2.6020852139652106e-18
631 631 0.089173789173789153
632 394 -0.001001602564102564
632 395 -0.003498931623931621
632 396 -0.0033386752136752118
632 397 1.0842021724855044e-19
632 398 -0.013034188034188026
632 399 -0.013354700854700851
632 400 0.0010016025641025642
632 401 -0.003498931623931621
632 402 -0.0033386752136752118
632 433 3.7947076036992655e-19
632 434 -0.0046474358974358896
632 435 1.1926223897340549e-18
632 436 0
632 437 -0.014743589743589722
632 438 3.903127820947816e-18
632 439 -4.87890977618477e-19
632 440 -0.0046474358974358896
632 441 1.5178830414797062e-18
632 472 0.0010016025641025642
632 473 -0.0034989316239316219
632 474 0.0033386752136752114
632 475 -2.7105054312137611e-20
632 476 -0.013034188034188033
632 477 0.013354700854700852
632 478 -0.0010016025641025642
632 479 -0.0034989316239316228
632 480 0.0033386752136752122
632 589 -0.0040064102564102561
632 590 -0.0033119658119658115
632 591 1.5178830414797062e-18
632 592 -5.4210108624275222e-19
632 593 -0.0094017094017094065
632 594 -1.0842021724855044e-18
632 595 0.0040064102564102561
632 596 -0.0033119658119658123
632 597 -3.2526065174565133e-19
632 628 -2.7105054312137611e-19
632 629 0.024145299145299132
632 630 -3.0357660829594124e-18
632 631 1.7347234759768071e-18
632 632 0.11196581196581193
633 394 -0.0020032051282051272
633 395 -0.0033386752136752118
633 396 -0.0068376068376068281
633 397 1.0842021724855044e-19
633 398 -0.013354700854700852
633 399 -0.026388888888888865
633 400 0.0020032051282051267
633 401 -0.0033386752136752114
633 402 -0.0068376068376068281
633 433 -0.0080128205128205104
633 434 8.6736173798840355e-19
633 435 -0.024679487179487147
633 436 1.3010426069826053e-18
633 437 1.7347234759768071e-18
633 438 -0.094871794871794812
633 439 0.0080128205128205104
633 440 1.5178830414797062e-18
633 441 -0.024679487179487154
633 472 -0.0020032051282051272
633 473 0.0033386752136752118
633 474 -0.0068376068376068307
633 475 3.7947076036992655e-19
633 476 0.013354700854700852
633 477 -0.026388888888888871
633 478 0.0020032051282051272
633 479 0.0033386752136752131
633 480 -0.0068376068376068315
633 589 7.589415207398531e-19
633 590 1.5178830414797062e-18
633 591 0.010042735042735035
633 592 -1.3010426069826053e-18
633 593 -2.1684043449710089e-19
633 594 0.044017094017093986
633 595 -3.2526065174565133e-19
633 596 -1.0842021724855044e-19
633 597 0.010042735042735035
633 628 1.0842021724855044e-18
633 629 -1.7347234759768071e-18
633 630 0.050854700854700827
633 631 -4.3368086899420177e-18
633 632 -1.1275702593849246e-17
633 633 0.21880341880341875
634 397 -0.0027866809116809093
634 398 -0.001001602564102564
634 399 -0.0020032051282051267
634 400 -0.0077813390313390234
634 401 1.3552527156068805e-19
634 402 -5.4210108624275222e-20
634 403 -0.0027866809116809097
634 404 0.001001602564102564
634 405 0.0020032051282051276
634 436 -0.0084757834757834723
634 437 2.439454888092385e-19
634 438 -0.0080128205128205104
634 439 -0.020441595441595423
634 440 2.1684043449710089e-19
634 441 6.5052130349130266e-19
634 442 -0.0084757834757834723
634 443 -4.3368086899420177e-19
634 444 0.0080128205128205121
634 475 -0.0027866809116809106
634 476 0.0010016025641025642
634 477 -0.0020032051282051276
634 478 -0.007781339031339026
634 479 -8.1315162936412833e-20
634 480 1.6263032587282567e-19
634 481 -0.0027866809116809102
634 482 -0.0010016025641025642
634 483 0.0020032051282051276
634 592 -0.00046296296296296472
634 593 -0.0040064102564102552
634 594 -5.4210108624275222e-20
634 595 0.011609686609686603
634 596 -4.3368086899420177e-19
634 597 0
634 598 -0.00046296296296296482
634 599 0.0040064102564102561
634 600 -1.0842021724855044e-19
634 631 0.0088319088319088242
634 632 -1.0299920638612292e-18
634 633 -3.2526065174565133e-19
634 634 0.089173789173789153
635 397 -0.001001602564102564
635 398 -0.0034989316239316223
635 399 -0.0033386752136752127
635 400 1.3552527156068805e-19
635 401 -0.013034188034188023
635 402 -0.013354700854700847
635 403 0.001001602564102564
635 404 -0.003498931623931621
635 405 -0.0033386752136752109
635 436 2.1684043449710089e-19
635 437 -0.0046474358974358913
635 438 -1.0842021724855044e-19
635 439 2.1684043449710089e-19
635 440 -0.014743589743589722
635 441 1.3010426069826053e-18
635 442 -4.0657581468206416e-19
635 443 -0.0046474358974358931
635 444 9.7578195523695399e-19
635 475 0.001001602564102564
635 476 -0.0034989316239316228
635 477 0.0033386752136752118
635 478 -1.8973538018496328e-19
635 479 -0.01303418803418803
635 480 0.013354700854700849
635 481 -0.001001602564102564
635 482 -0.0034989316239316219
635 483 0.0033386752136752114
635 592 -0.0040064102564102561
635 593 -0.0033119658119658141
635 594 -1.4094628242311558e-18
635 595 -5.4210108624275222e-20
635 596 -0.0094017094017094047
635 597 -1.5178830414797062e-18
635 598 0.0040064102564102561
635 599 -0.0033119658119658106
635 600 -1.0842021724855044e-18
635 631 -9.2157184661267877e-19
635 632 0.024145299145299136
635 633 -8.6736173798840355e-19
635 634 1.7347234759768071e-18
635 635 0.11196581196581191
636 397 -0.0020032051282051272
636 398 -0.0033386752136752127
636 399 -0.0068376068376068307
636 400 -1.6263032587282567e-19
636 401 -0.013354700854700847
636 402 -0.026388888888888861
636 403 0.002003205128205128
636 404 -0.0033386752136752114
636 405 -0.0068376068376068298
636 436 -0.0080128205128205121
636 437 3.2526065174565133e-19
636 438 -0.024679487179487161
636 439 2.1684043449710089e-19
636 440 1.3010426069826053e-18
636 441 -0.094871794871794798
636 442 0.0080128205128205104
636 443 1.0842021724855044e-18
636 444 -0.024679487179487154
636 475 -0.0020032051282051276
636 476 0.0033386752136752122
636 477 -0.0068376068376068333
636 478 1.0842021724855044e-19
636 479 0.013354700854700852
636 480 -0.026388888888888868
636 481 0.0020032051282051276
636 482 0.0033386752136752114
636 483 -0.0068376068376068307
636 592 -3.2526065174565133e-19
636 593 -1.1926223897340549e-18
636 594 0.010042735042735035
636 595 -4.3368086899420177e-19
636 596 -1.3010426069826053e-18
636 597 0.044017094017093986
636 598 -5.4210108624275222e-20
636 599 -1.951563910473908e-18
636 600 0.010042735042735031
636 631 -1.1926223897340549e-18
636 632 -4.3368086899420177e-19
636 633 0.050854700854700827
636 634 -1.7347234759768071e-18
636 635 -8.6736173798840355e-18
636 636 0.21880341880341872
637 400 -0.0027866809116809089
637 401 -0.001001602564102564
637 402 -0.0020032051282051276
637 403 -0.0077813390313390268
637 404 1.6263032587282567e-19
637 405 1.0842021724855044e-19
637 406 -0.0027866809116809102
637 407 0.0010016025641025642
637 408 0.0020032051282051276
637 439 -0.0084757834757834688
637 440 3.2526065174565133e-19
637 441 -0.0080128205128205104
637 442 -0.02044159544159543
637 443 0
637 444 1.6263032587282567e-18
637 445 -0.0084757834757834705
637 446 -5.9631119486702744e-19
637 447 0.0080128205128205121
637 478 -0.0027866809116809093
637 479 0.0010016025641025642
637 480 -0.0020032051282051276
637 481 -0.0077813390313390286
637 482 -1.6263032587282567e-19
637 483 3.2526065174565133e-19
637 484 -0.0027866809116809115
637 485 -0.0010016025641025644
637 486 0.0020032051282051276
637 595 -0.00046296296296296526
637 596 -0.0040064102564102543
637 597 4.87890977618477e-19
637 598 0.011609686609686604
637 599 -4.3368086899420177e-19
637 600 -8.6736173798840355e-19
637 601 -0.00046296296296296157
637 602 0.0040064102564102561
637 603 -7.589415207398531e-19
637 634 0.0088319088319088156
637 635 -4.87890977618477e-19
637 636 1.0842021724855044e-18
637 637 0.089173789173789167
638 400 -0.001001602564102564
638 401 -0.003498931623931621
638 402 -0.0033386752136752105
638 403 -2.7105054312137611e-20
638 404 -0.01303418803418803
638 405 -0.013354700854700852
638 406 0.0010016025641025642
638 407 -0.0034989316239316228
638 408 -0.003338675213675214
638 439 4.3368086899420177e-19
638 440 -0.0046474358974358896
638 441 6.5052130349130266e-19
638 442 0
638 443 -0.014743589743589729
638 444 2.3852447794681098e-18
638 445 -5.6920614055488983e-19
638 446 -0.0046474358974358922
638 447 1.4094628242311558e-18
638 478 0.0010016025641025642
638 479 -0.0034989316239316215
638 480 0.0033386752136752109
638 481 -5.4210108624275222e-20
638 482 -0.013034188034188033
638 483 0.013354700854700856
638 484 -0.0010016025641025642
638 485 -0.0034989316239316241
638 486 0.0033386752136752144
638 595 -0.0040064102564102552
638 596 -0.0033119658119658106
638 597 2.1684043449710089e-19
638 598 -8.1315162936412833e-19
638 599 -0.0094017094017094047
638 600 1.5178830414797062e-18
638 601 0.0040064102564102561
638 602 -0.0033119658119658115
638 603 1.0842021724855044e-19
638 634 -3.2526065174565133e-19
638 635 0.024145299145299122
638 636 -1.7347234759768071e-18
638 637 2.6020852139652106e-18
638 638 0.11196581196581196
639 400 -0.0020032051282051276
639 401 -0.0033386752136752109
639 402 -0.0068376068376068272
639 403 -5.4210108624275222e-20
639 404 -0.013354700854700852
639 405 -0.026388888888888871
639 406 0.0020032051282051272
639 407 -0.0033386752136752135
639 408 -0.0068376068376068333
639 439 -0.0080128205128205121
639 440 5.4210108624275222e-19
639 441 -0.024679487179487147
639 442 1.3010426069826053e-18
639 443 1.0842021724855044e-18
639 444 -0.094871794871794826
639 445 0.0080128205128205104
639 446 2.2768245622195593e-18
639 447 -0.024679487179487168
639 478 -0.0020032051282051276
639 479 0.0033386752136752109
639 480 -0.0068376068376068289
639 481 2.1684043449710089e-19
639 482 0.013354700854700852
639 483 -0.026388888888888878
639 484 0.0020032051282051276
639 485 0.0033386752136752144
639 486 -0.006837606837606835
639 595 4.87890977618477e-19
639 596 0
639 597 0.010042735042735031
639 598 -4.3368086899420177e-19
639 599 2.1684043449710089e-19
639 600 0.044017094017094006
639 601 -5.9631119486702744e-19
639 602 -3.2526065174565133e-19
639 603 0.010042735042735042
639 634 -4.3368086899420177e-19
639 635 -2.1684043449710089e-18
639 636 0.050854700854700813
639 637 0
639 638 -1.214306433183765e-17
639 639 0.2188034188034188
640 403 -0.0027866809116809115
640 404 -0.001001602564102564
640 405 -0.0020032051282051276
640 406 -0.0077813390313390268
640 407 0
640 408 1.6263032587282567e-19
640 409 -0.0027866809116809097
640 410 0.001001602564102564
640 411 0.0020032051282051272
640 442 -0.0084757834757834757
640 443 5.4210108624275222e-20
640 444 -0.0080128205128205121
640 445 -0.020441595441595427
640 446 -4.3368086899420177e-19
640 447 1.0842021724855044e-18
640 448 -0.0084757834757834688
640 449 -5.4210108624275222e-20
640 450 0.0080128205128205121
640 481 -0.0027866809116809119
640 482 0.0010016025641025642
640 483 -0.002003205128205128
640 484 -0.0077813390313390286
640 485 -1.3552527156068805e-19
640 486 3.7947076036992655e-19
640 487 -0.0027866809116809097
640 488 -0.001001602564102564
640 489 0.0020032051282051276
640 598 -0.00046296296296296249
640 599 -0.0040064102564102561
640 600 -1.0842021724855044e-19
640 601 0.011609686609686603
640 602 -8.6736173798840355e-19
640 603 -4.3368086899420177e-19
640 604 -0.00046296296296296499
640 605 0.0040064102564102561
640 606 -4.3368086899420177e-19
640 637 0.0088319088319088381
640 638 -1.3552527156068805e-18
640 639 -1.5178830414797062e-18
640 640 0.089173789173789167
641 403 -0.0010016025641025642
641 404 -0.0034989316239316241
641 405 -0.0033386752136752144
641 406 1.6263032587282567e-19
641 407 -0.01303418803418803
641 408 -0.013354700854700849
641 409 0.001001602564102564
641 410 -0.0034989316239316215
641 411 -0.0033386752136752118
641 442 1.3552527156068805e-19
641 443 -0.0046474358974358948
641 444 -3.2526065174565133e-19
641 445 -4.3368086899420177e-19
641 446 -0.014743589743589726
641 447 0
641 448 -5.4210108624275222e-20
641 449 -0.0046474358974358913
641 450 0
641 481 0.001001602564102564
641 482 -0.0034989316239316245
641 483 0.0033386752136752144
641 484 -2.7105054312137611e-19
641 485 -0.013034188034188035
641 486 0.013354700854700856
641 487 -0.001001602564102564
641 488 -0.003498931623931621
641 489 0.0033386752136752105
641 598 -0.0040064102564102561
641 599 -0.0033119658119658149
641 600 -1.6263032587282567e-18
641 601 -8.1315162936412833e-19
641 602 -0.0094017094017094099
641 603 1.3010426069826053e-18
641 604 0.0040064102564102561
641 605 -0.0033119658119658132
641 606 -2.0599841277224584e-18
641 637 -1.5720931501039814e-18
641 638 0.02414529914529915
641 639 -1.7347234759768071e-18
641 640 8.6736173798840355e-19
641 641 0.11196581196581197
642 403 -0.0020032051282051276
642 404 -0.0033386752136752144
642 405 -0.0068376068376068359
642 406 2.1684043449710089e-19
642 407 -0.013354700854700852
642 408 -0.026388888888888871
642 409 0.0020032051282051272
642 410 -0.0033386752136752118
642 411 -0.0068376068376068281
642 442 -0.0080128205128205121
642 443 3.2526065174565133e-19
642 444 -0.024679487179487175
642 445 1.4094628242311558e-18
642 446 8.6736173798840355e-19
642 447 -0.094871794871794812
642 448 0.0080128205128205104
642 449 -5.4210108624275222e-19
642 450 -0.024679487179487154
642 481 -0.002003205128205128
642 482 0.0033386752136752148
642 483 -0.0068376068376068376
642 484 4.87890977618477e-19
642 485 0.013354700854700856
642 486 -0.026388888888888878
642 487 0.0020032051282051276
642 488 0.0033386752136752114
642 489 -0.0068376068376068315
642 598 -2.1684043449710089e-19
642 599 -2.4936649967166602e-18
642 600 0.010042735042735042
642 601 -8.6736173798840355e-19
642 602 2.3852447794681098e-18
642 603 0.044017094017093993
642 604 -2.1684043449710089e-19
642 605 -1.1926223897340549e-18
642 606 0.010042735042735035
642 637 -1.5178830414797062e-18
642 638 0
642 639 0.050854700854700861
642 640 8.6736173798840355e-19
642 641 -1.7347234759768071e-17
642 642 0.2188034188034188
643 406 -0.0027866809116809089
643 407 -0.0010016025641025638
643 408 -0.0020032051282051272
643 409 -0.0077813390313390268
643 410 1.0842021724855044e-19
643 411 5.4210108624275222e-20
643 412 -0.002786680911680911
643 413 0.001001602564102564
643 414 0.0020032051282051276
643 445 -0.0084757834757834688
643 446 6.2341624917916505e-19
643 447 -0.0080128205128205086
643 448 -0.02044159544159543
643 449 -2.1684043449710089e-19
643 450 5.4210108624275222e-19
643 451 -0.0084757834757834757
643 452 -8.1315162936412833e-19
643 453 0.0080128205128205121
643 484 -0.0027866809116809106
643 485 0.0010016025641025642
643 486 -0.0020032051282051276
643 487 -0.0077813390313390286
643 488 -1.6263032587282567e-19
643 489 2.1684043449710089e-19
643 490 -0.0027866809116809128
643 491 -0.0010016025641025642
643 492 0.0020032051282051276
643 601 -0.00046296296296296385
643 602 -0.0040064102564102543
643 603 -1.6263032587282567e-19
643 604 0.011609686609686604
643 605 -3.7947076036992655e-19
643 606 -2.1684043449710089e-18
643 607 -0.00046296296296296146
643 608 0.0040064102564102561
643 609 8.6736173798840355e-19
643 640 0.008831908831908819
643 641 9.2157184661267877e-19
643 642 -1.6263032587282567e-18
643 643 0.089173789173789153
644 406 -0.001001602564102564
644 407 -0.0034989316239316206
644 408 -0.0033386752136752109
644 409 1.8973538018496328e-19
644 410 -0.01303418803418803
644 411 -0.013354700854700852
644 412 0.0010016025641025638
644 413 -0.0034989316239316232
644 414 -0.0033386752136752131
644 445 7.589415207398531e-19
644 446 -0.0046474358974358913
644 447 2.4936649967166602e-18
644 448 -2.1684043449710089e-19
644 449 -0.014743589743589728
644 450 3.6862873864507151e-18
644 451 -8.9446679230054116e-19
644 452 -0.0046474358974358965
644 453 2.7105054312137611e-18
644 484 0.0010016025641025642
644 485 -0.0034989316239316223
644 486 0.0033386752136752118
644 487 -2.1684043449710089e-19
644 488 -0.013034188034188033
644 489 0.013354700854700852
644 490 -0.0010016025641025642
644 491 -0.0034989316239316262
644 492 0.0033386752136752148
644 601 -0.0040064102564102543
644 602 -0.0033119658119658089
644 603 -1.1926223897340549e-18
644 604 -4.87890977618477e-19
644 605 -0.0094017094017094065
644 606 -1.7347234759768071e-18
644 607 0.0040064102564102552
644 608 -0.0033119658119658106
644 609 -2.1684043449710089e-18
644 640 8.1315162936412833e-19
644 641 0.024145299145299129
644 642 -4.3368086899420177e-19
644 643 1.3010426069826053e-18
644 644 0.11196581196581196
645 406 -0.0020032051282051272
645 407 -0.0033386752136752114
645 408 -0.0068376068376068289
645 409 -5.4210108624275222e-20
645 410 -0.013354700854700852
645 411 -0.026388888888888871
645 412 0.0020032051282051276
645 413 -0.003338675213675214
645 414 -0.0068376068376068367
645 445 -0.0080128205128205121
645 446 3.1441863002079629e-18
645 447 -0.024679487179487154
645 448 2.1684043449710089e-19
645 449 1.951563910473908e-18
645 450 -0.094871794871794826
645 451 0.0080128205128205121
645 452 2.3852447794681098e-18
645 453 -0.024679487179487182
645 484 -0.0020032051282051276
645 485 0.0033386752136752118
645 486 -0.0068376068376068315
645 487 5.4210108624275222e-20
645 488 0.013354700854700854
645 489 -0.026388888888888878
645 490 0.002003205128205128
645 491 0.0033386752136752153
645 492 -0.0068376068376068385
645 601 1.0842021724855044e-19
645 602 -2.1684043449710089e-18
645 603 0.010042735042735035
645 604 -1.7347234759768071e-18
645 605 -1.5178830414797062e-18
645 606 0.044017094017093999
645 607 5.9631119486702744e-19
645 608 -2.6020852139652106e-18
645 609 0.010042735042735042
645 640 -4.3368086899420177e-19
645 641 4.3368086899420177e-19
645 642 0.05085470085470082
645 643 -6.9388939039072284e-18
645 644 -1.214306433183765e-17
645 645 0.2188034188034188
646 409 -0.0027866809116809097
646 410 -0.001001602564102564
646 411 -0.0020032051282051272
646 412 -0.0077813390313390216
646 413 -2.7105054312137611e-20
646 414 1.0842021724855044e-19
646 415 -0.0027866809116809071
646 416 0.0010016025641025642
646 417 0.0020032051282051272
646 448 -0.0084757834757834688
646 449 -5.4210108624275222e-20
646 450 -0.0080128205128205086
646 451 -0.020441595441595416
646 452 -6.5052130349130266e-19
646 453 1.1926223897340549e-18
646 454 -0.0084757834757834619
646 455 5.9631119486702744e-19
646 456 0.0080128205128205104
646 487 -0.0027866809116809102
646 488 0.001001602564102564
646 489 -0.0020032051282051272
646 490 -0.0077813390313390242
646 491 -2.7105054312137611e-19
646 492 2.1684043449710089e-19
646 493 -0.0027866809116809067
646 494 -0.001001602564102564
646 495 0.0020032051282051272
646 604 -0.00046296296296296298
646 605 -0.0040064102564102561
646 606 8.6736173798840355e-19
646 607 0.011609686609686601
646 608 -1.3552527156068805e-18
646 609 -8.6736173798840355e-19
646 610 -0.0004629629629629697
646 611 0.0040064102564102561
646 612 -1.1384122811097797e-18
646 643 0.0088319088319088381
646 644 -1.7889335846010823e-18
646 645 3.1441863002079629e-18
646 646 0.089173789173789153
647 409 -0.001001602564102564
647 410 -0.0034989316239316228
647 411 -0.0033386752136752135
647 412 -8.1315162936412833e-20
647 413 -0.013034188034188023
647 414 -0.013354700854700845
647 415 0.001001602564102564
647 416 -0.0034989316239316184
647 417 -0.0033386752136752083
647 448 -1.6263032587282567e-19
647 449 -0.0046474358974358896
647 450 -1.6263032587282567e-18
647 451 -6.5052130349130266e-19
647 452 -0.014743589743589719
647 453 -8.6736173798840355e-19
647 454 5.1499603193061461e-19
647 455 -0.0046474358974358853
647 456 -5.0957502106818708e-18
647 487 0.001001602564102564
647 488 -0.0034989316239316228
647 489 0.0033386752136752131
647 490 -3.2526065174565133e-19
647 491 -0.013034188034188026
647 492 0.013354700854700849
647 493 -0.001001602564102564
647 494 -0.0034989316239316163
647 495 0.0033386752136752075
647 604 -0.0040064102564102561
647 605 -0.0033119658119658158
647 606 2.6020852139652106e-18
647 607 -1.2468324983583301e-18
647 608 -0.0094017094017094013
647 609 -8.6736173798840355e-19
647 610 0.0040064102564102561
647 611 -0.0033119658119658158
647 612 3.903127820947816e-18
647 643 -2.1141942363467336e-18
647 644 0.02414529914529915
647 645 -3.4694469519536142e-18
647 646 -1.7347234759768071e-18
647 647 0.1119658119658119
648 409 -0.0020032051282051272
648 410 -0.003338675213675214
648 411 -0.0068376068376068315
648 412 -1.0842021724855044e-19
648 413 -0.013354700854700847
648 414 -0.026388888888888858
648 415 0.0020032051282051272
648 416 -0.0033386752136752075
648 417 -0.0068376068376068211
648 448 -0.0080128205128205104
648 449 -1.8431436932253575e-18
648 450 -0.024679487179487161
648 451 7.589415207398531e-19
648 452 1.0842021724855044e-18
648 453 -0.094871794871794771
648 454 0.0080128205128205086
648 455 -4.2283884726934673e-18
648 456 -0.024679487179487127
648 487 -0.0020032051282051276
648 488 0.0033386752136752131
648 489 -0.0068376068376068324
648 490 1.0842021724855044e-19
648 491 0.013354700854700847
648 492 -0.026388888888888865
648 493 0.0020032051282051272
648 494 0.0033386752136752075
648 495 -0.0068376068376068229
648 604 8.6736173798840355e-19
648 605 2.2768245622195593e-18
648 606 0.010042735042735042
648 607 -4.3368086899420177e-19
648 608 1.7347234759768071e-18
648 609 0.044017094017093979
648 610 -9.7578195523695399e-19
648 611 3.7947076036992655e-18
648 612 0.010042735042735021
648 643 3.1441863002079629e-18
648 644 -4.7704895589362195e-18
648 645 0.050854700854700854
648 646 -1.7347234759768071e-18
648 647 -7.8062556418956319e-18
648 648 0.21880341880341864
649 412 -0.002786680911680908
649 413 -0.0010016025641025638
649 414 -0.0020032051282051272
649 415 -0.0077813390313390208
649 416 -1.8973538018496328e-19
649 417 -2.7105054312137611e-19
649 418 -0.0027866809116809132
649 419 0.0010016025641025642
649 420 0.002003205128205128
649 451 -0.0084757834757834688
649 452 1.2468324983583301e-18
649 453 -0.0080128205128205104
649 454 -0.020441595441595413
649 455 -1.5178830414797062e-18
649 456 -6.5052130349130266e-19
649 457 -0.0084757834757834827
649 458 3.5236570605778894e-19
649 459 0.0080128205128205138
649 490 -0.0027866809116809097
649 491 0.0010016025641025642
649 492 -0.0020032051282051276
649 493 -0.0077813390313390234
649 494 -5.1499603193061461e-19
649 495 -3.2526065174565133e-19
649 496 -0.0027866809116809132
649 497 -0.0010016025641025642
649 498 0.0020032051282051285
649 607 -0.00046296296296296645
649 608 -0.0040064102564102543
649 609 -7.0473141211557788e-19
649 610 0.011609686609686601
649 611 -2.3310346708438345e-18
649 612 -2.1684043449710089e-18
649 613 -0.00046296296296296439
649 614 0.0040064102564102561
649 615 2.0599841277224584e-18
649 646 0.0088319088319087947
649 647 3.1983964088322381e-18
649 648 -4.0115480381963664e-18
649 649 0.089173789173789139
650 412 -0.0010016025641025638
650 413 -0.0034989316239316176
650 414 -0.0033386752136752062
650 415 -2.7105054312137611e-19
650 416 -0.013034188034188021
650 417 -0.013354700854700845
650 418 0.0010016025641025644
650 419 -0.0034989316239316262
650 420 -0.0033386752136752157
650 451 1.3010426069826053e-18
650 452 -0.0046474358974358913
650 453 4.4452289071905682e-18
650 454 -1.5178830414797062e-18
650 455 -0.014743589743589719
650 456 5.2041704279304213e-18
650 457 2.9815559743351372e-19
650 458 -0.0046474358974359017
650 459 -1.4094628242311558e-18
650 490 0.0010016025641025642
650 491 -0.0034989316239316215
650 492 0.0033386752136752109
650 493 -5.1499603193061461e-19
650 494 -0.013034188034188026
650 495 0.013354700854700844
650 496 -0.001001602564102564
650 497 -0.0034989316239316254
650 498 0.0033386752136752135
650 607 -0.0040064102564102543
650 608 -0.0033119658119658028
650 609 3.2526065174565133e-19
650 610 -2.2768245622195593e-18
650 611 -0.009401709401709403
650 612 -3.4694469519536142e-18
650 613 0.0040064102564102561
650 614 -0.0033119658119658175
650 615 -9.6493993351209895e-18
650 646 3.3610267347050637e-18
650 647 0.024145299145299101
650 648 -9.9746599868666408e-18
650 649 -4.7704895589362195e-18
650 650 0.1119658119658119
651 412 -0.0020032051282051272
651 413 -0.0033386752136752066
651 414 -0.0068376068376068272
651 415 -3.7947076036992655e-19
651 416 -0.013354700854700845
651 417 -0.026388888888888851
651 418 0.002003205128205128
651 419 -0.0033386752136752166
651 420 -0.0068376068376068411
651 451 -0.0080128205128205104
651 452 5.0957502106818708e-18
651 453 -0.024679487179487144
651 454 -6.5052130349130266e-19
651 455 4.1199682554449168e-18
651 456 -0.094871794871794757
651 457 0.0080128205128205121
651 458 -1.3010426069826053e-18
651 459 -0.024679487179487199
651 490 -0.0020032051282051276
651 491 0.0033386752136752109
651 492 -0.0068376068376068281
651 493 -4.3368086899420177e-19
651 494 0.013354700854700845
651 495 -0.026388888888888858
651 496 0.0020032051282051285
651 497 0.0033386752136752127
651 498 -0.0068376068376068419
651 607 -6.5052130349130266e-19
651 608 -8.6736173798840355e-19
651 609 0.010042735042735024
651 610 -2.1684043449710089e-18
651 611 -7.3725747729014302e-18
651 612 0.044017094017093979
651 613 2.2768245622195593e-18
651 614 -1.0408340855860843e-17
651 615 0.010042735042735037
651 646 -3.903127820947816e-18
651 647 -7.3725747729014302e-18
651 648 0.050854700854700771
651 649 -8.6736173798840355e-18
651 650 -1.7347234759768071e-18
651 651 0.21880341880341866
652 415 -0.0027866809116809076
652 416 -0.0010016025641025638
652 417 -0.0020032051282051267
652 418 -0.0077813390313390303
652 419 1.8973538018496328e-19
652 420 1.0842021724855044e-19
652 421 -0.0027866809116809084
652 422 0.0010016025641025638
652 423 0.0020032051282051267
652 454 -0.0084757834757834619
652 455 1.0842021724855044e-18
652 456 -0.0080128205128205086
652 457 -0.020441595441595434
652 458 2.1684043449710089e-19
652 459 8.6736173798840355e-19
652 460 -0.0084757834757834653
652 461 -1.2468324983583301e-18
652 462 0.0080128205128205086
652 493 -0.0027866809116809089
652 494 0.0010016025641025644
652 495 -0.0020032051282051272
652 496 -0.007781339031339032
652 497 -8.1315162936412833e-20
652 498 1.6263032587282567e-19
652 499 -0.0027866809116809102
652 500 -0.0010016025641025644
652 501 0.0020032051282051272
652 610 -0.00046296296296296179
652 611 -0.0040064102564102543
652 612 2.5478751053409354e-18
652 613 0.011609686609686604
652 614 -5.4210108624275222e-20
652 615 -8.6736173798840355e-19
652 616 -0.00046296296296295994
652 617 0.0040064102564102561
652 618 -2.1141942363467336e-18
652 649 0.0088319088319088312
652 650 2.1684043449710089e-18
652 651 9.3241386833753381e-18
652 652 0.089173789173789181
653 415 -0.0010016025641025638
653 416 -0.0034989316239316189
653 417 -0.0033386752136752118
653 418 1.3552527156068805e-19
653 419 -0.013034188034188033
653 420 -0.013354700854700854
653 421 0.0010016025641025638
653 422 -0.0034989316239316206
653 423 -0.0033386752136752118
653 454 1.0028870095490916e-18
653 455 -0.0046474358974358835
653 456 7.1557343384043293e-18
653 457 2.1684043449710089e-19
653 458 -0.014743589743589733
653 459 -1.5178830414797062e-18
653 460 -1.3281476612947429e-18
653 461 -0.0046474358974358861
653 462 4.4452289071905682e-18
653 493 0.0010016025641025644
653 494 -0.0034989316239316228
653 495 0.0033386752136752122
653 496 -8.1315162936412833e-20
653 497 -0.013034188034188036
653 498 0.013354700854700863
653 499 -0.0010016025641025647
653 500 -0.0034989316239316245
653 501 0.0033386752136752153
653 610 -0.0040064102564102543
653 611 -0.0033119658119658071
653 612 3.2526065174565133e-19
653 613 -4.3368086899420177e-19
653 614 -0.0094017094017094099
653 615 7.8062556418956319e-18
653 616 0.0040064102564102552
653 617 -0.003311965811965808
653 618 5.3125906451789717e-18
653 649 2.6562953225894859e-18
653 650 0.024145299145299143
653 651 5.2041704279304213e-18
653 652 1.7347234759768071e-18
653 653 0.11196581196581197
654 415 -0.0020032051282051267
654 416 -0.0033386752136752114
654 417 -0.0068376068376068237
654 418 -5.4210108624275222e-20
654 419 -0.013354700854700856
654 420 -0.026388888888888878
654 421 0.0020032051282051267
654 422 -0.0033386752136752118
654 423 -0.0068376068376068281
654 454 -0.0080128205128205086
654 455 5.0957502106818708e-18
654 456 -0.02467948717948713
654 457 1.0842021724855044e-18
654 458 -3.4694469519536142e-18
654 459 -0.094871794871794854
654 460 0.0080128205128205086
654 461 3.903127820947816e-18
654 462 -0.024679487179487147
654 493 -0.0020032051282051267
654 494 0.0033386752136752122
654 495 -0.0068376068376068263
654 496 3.2526065174565133e-19
654 497 0.013354700854700861
654 498 -0.026388888888888885
654 499 0.0020032051282051267
654 500 0.0033386752136752153
654 501 -0.0068376068376068315
654 610 2.439454888092385e-18
654 611 3.2526065174565133e-18
654 612 0.010042735042735038
654 613 -4.3368086899420177e-19
654 614 9.7578195523695399e-18
654 615 0.044017094017094006
654 616 -1.8431436932253575e-18
654 617 8.0230960763927328e-18
654 618 0.010042735042735043
654 649 8.8904578143811364e-18
654 650 2.6020852139652106e-18
654 651 0.050854700854700848
654 652 -5.2041704279304213e-18
654 653 -3.3827107781547738e-17
654 654 0.21880341880341886
655 418 -0.0027866809116809132
655 419 -0.0010016025641025642
655 420 -0.0020032051282051276
655 421 -0.0077813390313390234
655 422 2.9815559743351372e-19
655 423 7.0473141211557788e-19
655 424 -0.002786680911680908
655 425 0.001001602564102564
655 426 0.0020032051282051272
655 457 -0.0084757834757834792
655 458 -5.9631119486702744e-19
655 459 -0.0080128205128205121
655 460 -0.02044159544159542
655 461 1.0842021724855044e-18
655 462 4.0115480381963664e-18
655 463 -0.0084757834757834653
655 464 -3.7947076036992655e-19
655 465 0.0080128205128205121
655 496 -0.0027866809116809132
655 497 0.0010016025641025638
655 498 -0.002003205128205128
655 499 -0.007781339031339026
655 500 2.7105054312137611e-20
655 501 9.7578195523695399e-19
655 502 -0.0027866809116809084
655 503 -0.0010016025641025642
655 504 0.0020032051282051272
655 613 -0.00046296296296296352
655 614 -0.0040064102564102561
655 615 -1.8431436932253575e-18
655 616 0.011609686609686601
655 617 1.6263032587282567e-19
655 618 1.7347234759768071e-18
655 619 -0.00046296296296296759
655 620 0.0040064102564102561
655 621 -7.0473141211557788e-19
655 652 0.0088319088319088416
655 653 -3.6862873864507151e-18
655 654 -7.0473141211557788e-18
655 655 0.089173789173789153
656 418 -0.0010016025641025642
656 419 -0.0034989316239316267
656 420 -0.0033386752136752157
656 421 3.2526065174565133e-19
656 422 -0.013034188034188026
656 423 -0.013354700854700851
656 424 0.001001602564102564
656 425 -0.0034989316239316176
656 426 -0.0033386752136752088
656 457 -6.2341624917916505e-19
656 458 -0.0046474358974359
656 459 -5.3125906451789717e-18
656 460 8.6736173798840355e-19
656 461 -0.014743589743589722
656 462 8.8904578143811364e-18
656 463 -4.3368086899420177e-19
656 464 -0.004647435897435887
656 465 1.4094628242311558e-18
656 496 0.0010016025641025638
656 497 -0.0034989316239316249
656 498 0.0033386752136752153
656 499 2.7105054312137611e-20
656 500 -0.013034188034188031
656 501 0.013354700854700849
656 502 -0.0010016025641025642
656 503 -0.0034989316239316189
656 504 0.0033386752136752092
656 613 -0.0040064102564102561
656 614 -0.0033119658119658201
656 615 -1.0842021724855044e-18
656 616 3.7947076036992655e-19
656 617 -0.0094017094017094065
656 618 -1.214306433183765e-17
656 619 0.0040064102564102561
656 620 -0.0033119658119658097
656 621 8.6736173798840355e-19
656 652 -3.7404974950749903e-18
656 653 0.024145299145299157
656 654 -9.540979117872439e-18
656 655 4.3368086899420177e-18
656 656 0.11196581196581193
657 418 -0.0020032051282051276
657 419 -0.0033386752136752161
657 420 -0.0068376068376068411
657 421 6.5052130349130266e-19
657 422 -0.013354700854700852
657 423 -0.026388888888888861
657 424 0.0020032051282051272
657 425 -0.0033386752136752092
657 426 -0.0068376068376068237
657 457 -0.0080128205128205121
657 458 -3.6862873864507151e-18
657 459 -0.024679487179487196
657 460 4.0115480381963664e-18
657 461 1.0842021724855044e-17
657 462 -0.094871794871794798
657 463 0.0080128205128205086
657 464 2.3852447794681098e-18
657 465 -0.024679487179487133
657 496 -0.002003205128205128
657 497 0.0033386752136752148
657 498 -0.0068376068376068419
657 499 8.6736173798840355e-19
657 500 0.013354700854700849
657 501 -0.026388888888888865
657 502 0.0020032051282051276
657 503 0.0033386752136752088
657 504 -0.0068376068376068255
657 613 -1.951563910473908e-18
657 614 -3.1441863002079629e-18
657 615 0.010042735042735042
657 616 1.3010426069826053e-18
657 617 -1.2793585635328952e-17
657 618 0.044017094017093986
657 619 -6.5052130349130266e-19
657 620 -2.2768245622195593e-18
657 621 0.010042735042735024
657 652 -7.6978354246470815e-18
657 653 -6.5052130349130266e-18
657 654 0.050854700854700868
657 655 7.8062556418956319e-18
657 656 1.3010426069826053e-17
657 657 0.21880341880341869
658 421 -0.0027866809116809089
658 422 -0.001001602564102564
658 423 -0.0020032051282051276
658 424 -0.0077813390313390242
658 425 3.5236570605778894e-19
658 426 1.1926223897340549e-18
658 427 -0.0027866809116809076
658 428 0.001001602564102564
658 429 0.0020032051282051267
658 460 -0.0084757834757834688
658 461 2.1684043449710089e-19
658 462 -0.0080128205128205121
658 463 -0.020441595441595423
658 464 1.3010426069826053e-18
658 465 4.6620693416876691e-18
658 466 -0.0084757834757834619
658 467 -1.4094628242311558e-18
658 468 0.0080128205128205086
658 499 -0.0027866809116809093
658 500 0.0010016025641025642
658 501 -0.002003205128205128
658 502 -0.0077813390313390251
658 503 5.4210108624275222e-20
658 504 1.0842021724855044e-18
658 505 -0.0027866809116809097
658 506 -0.0010016025641025644
658 507 0.0020032051282051267
658 616 -0.00046296296296296797
658 617 -0.0040064102564102552
658 618 -5.4210108624275222e-19
658 619 0.011609686609686603
658 620 2.7105054312137611e-19
658 621 2.1684043449710089e-18
658 622 -0.00046296296296295897
658 623 0.0040064102564102552
658 624 -3.0899761915836876e-18
658 655 0.0088319088319087982
658 656 -7.0473141211557788e-19
658 657 -1.7347234759768071e-18
658 658 0.089173789173789153
659 421 -0.0010016025641025638
659 422 -0.0034989316239316193
659 423 -0.0033386752136752101
659 424 2.9815559743351372e-19
659 425 -0.013034188034188026
659 426 -0.013354700854700849
659 427 0.0010016025641025638
659 428 -0.0034989316239316193
659 429 -0.0033386752136752122
659 460 2.7105054312137611e-19
659 461 -0.0046474358974358913
659 462 2.1684043449710089e-18
659 463 1.0842021724855044e-18
659 464 -0.014743589743589722
659 465 3.903127820947816e-18
659 466 -1.4094628242311558e-18
659 467 -0.0046474358974358827
659 468 6.2883726004159257e-18
659 499 0.001001602564102564
659 500 -0.0034989316239316197
659 501 0.0033386752136752092
659 502 8.1315162936412833e-20
659 503 -0.013034188034188031
659 504 0.013354700854700856
659 505 -0.0010016025641025647
659 506 -0.0034989316239316241
659 507 0.0033386752136752148
659 616 -0.0040064102564102552
659 617 -0.0033119658119658106
659 618 -3.903127820947816e-18
659 619 0
659 620 -0.009401709401709403
659 621 6.0715321659188248e-18
659 622 0.0040064102564102543
659 623 -0.0033119658119658076
659 624 8.1315162936412833e-18
659 655 -7.0473141211557788e-19
659 656 0.024145299145299105
659 657 2.6020852139652106e-18
659 658 5.6378512969246231e-18
659 659 0.11196581196581194
660 421 -0.0020032051282051276
660 422 -0.0033386752136752101
660 423 -0.0068376068376068272
660 424 1.1926223897340549e-18
660 425 -0.013354700854700847
660 426 -0.026388888888888865
660 427 0.0020032051282051263
660 428 -0.0033386752136752122
660 429 -0.0068376068376068263
660 460 -0.0080128205128205121
660 461 8.6736173798840355e-19
660 462 -0.024679487179487144
660 463 4.87890977618477e-18
660 464 3.0357660829594124e-18
660 465 -0.094871794871794798
660 466 0.0080128205128205069
660 467 5.2041704279304213e-18
660 468 -0.02467948717948714
660 499 -0.0020032051282051276
660 500 0.0033386752136752092
660 501 -0.0068376068376068281
660 502 1.2468324983583301e-18
660 503 0.013354700854700852
660 504 -0.026388888888888868
660 505 0.0020032051282051267
660 506 0.003338675213675214
660 507 -0.0068376068376068298
660 616 -4.87890977618477e-19
660 617 -2.3852447794681098e-18
660 618 0.010042735042735024
660 619 2.6020852139652106e-18
660 620 8.0230960763927328e-18
660 621 0.044017094017093986
660 622 -2.9815559743351372e-18
660 623 7.8062556418956319e-18
660 624 0.010042735042735045
660 655 -2.3852447794681098e-18
660 656 -2.1684043449710089e-18
660 657 0.050854700854700771
660 658 1.1275702593849246e-17
660 659 -2.7755575615628914e-17
660 660 0.21880341880341872
661 424 -0.0027866809116809141
661 425 -0.0010016025641025642
661 426 -0.002003205128205128
661 427 -0.003890669515669516
661 428 -0.0002003205128205126
661 429 -0.00040064102564102476
661 463 -0.0084757834757834844
661 464 -7.0473141211557788e-19
661 465 -0.0080128205128205121
661 466 -0.010220797720797724
661 467 1.0842021724855044e-18
661 468 -0.0016025641025640986
661 502 -0.0027866809116809141
661 503 0.0010016025641025638
661 504 -0.0020032051282051285
661 505 -0.0038906695156695186
661 506 0.00020032051282051292
661 507 -0.00040064102564102465
661 619 -0.00046296296296296309
661 620 -0.0040064102564102561
661 621 -2.6562953225894859e-18
661 622 0.0058048433048433013
661 623 -0.0008012820512820506
661 624 2.6020852139652106e-18
661 658 0.0088319088319088468
661 659 -4.2825985813177425e-18
661 660 -1.1492543028346347e-17
661 661 0.044586894586894597
662 424 -0.0010016025641025642
662 425 -0.0034989316239316284
662 426 -0.0033386752136752183
662 427 0.000200320512820513
662 428 -0.0065170940170940191
662 429 -0.0066773504273504323
662 463 -7.3183646642771549e-19
662 464 -0.0046474358974359052
662 465 -3.6862873864507151e-18
662 466 6.5052130349130266e-19
662 467 -0.0073717948717948699
662 468 1.3010426069826053e-18
662 502 0.001001602564102564
662 503 -0.0034989316239316267
662 504 0.0033386752136752161
662 505 -0.00020032051282051276
662 506 -0.0065170940170940217
662 507 0.0066773504273504305
662 619 -0.0040064102564102561
662 620 -0.003311965811965821
662 621 -6.0715321659188248e-18
662 622 0.0008012820512820519
662 623 -0.0047008547008547102
662 624 2.8189256484623115e-18
662 658 -4.2283884726934673e-18
662 659 0.02414529914529916
662 660 -3.4694469519536142e-18
662 661 4.7704895589362195e-18
662 662 0.05598290598290602
663 424 -0.002003205128205128
663 425 -0.0033386752136752187
663 426 -0.0068376068376068471
663 427 0.00040064102564102612
663 428 -0.0066773504273504323
663 429 -0.013194444444444441
663 463 -0.0080128205128205138
663 464 -3.6862873864507151e-18
663 465 -0.024679487179487217
663 466 0.001602564102564106
663 467 3.903127820947816e-18
663 468 -0.047435897435897448
663 502 -0.0020032051282051285
663 503 0.0033386752136752157
663 504 -0.0068376068376068471
663 505 0.00040064102564102644
663 506 0.0066773504273504323
663 507 -0.013194444444444448
663 619 -2.8731357570865868e-18
663 620 -6.5052130349130266e-18
663 621 0.010042735042735042
663 622 3.0357660829594124e-18
663 623 -1.7347234759768071e-18
663 624 0.02200854700854701
663 658 -1.1600963245594897e-17
663 659 -5.6378512969246231e-18
663 660 0.050854700854700875
663 661 1.0408340855860843e-17
663 662 -6.0715321659188248e-18
663 663 0.10940170940170946
664 430 -0.0038906695156695112
664 431 0.00020032051282051292
664 432 0.00040064102564102557
664 433 -0.0027866809116809093
664 434 0.001001602564102564
664 435 0.0020032051282051272
664 469 -0.010220797720797715
664 470 2.1684043449710089e-19
664 471 0.0016025641025641032
664 472 -0.0084757834757834723
664 473 -4.6078592330633938e-19
664 474 0.0080128205128205121
664 508 -0.0038906695156695138
664 509 -0.00020032051282051281
664 510 0.00040064102564102541
664 511 -0.0027866809116809106
664 512 -0.001001602564102564
664 513 0.002003205128205128
664 625 0.0058048433048433013
664 626 0.00080128205128205082
664 627 -4.3368086899420177e-19
664 628 -0.00046296296296296439
664 629 0.0040064102564102561
664 630 -5.9631119486702744e-19
664 664 0.044586894586894577
665 430 -0.00020032051282051271
665 431 -0.0065170940170940122
665 432 -0.0066773504273504227
665 433 0.001001602564102564
665 434 -0.003498931623931621
665 435 -0.0033386752136752118
665 469 0
665 470 -0.0073717948717948664
665 471 2.1684043449710089e-19
665 472 -3.7947076036992655e-19
665 473 -0.0046474358974358939
665 474 5.4210108624275222e-19
665 508 0.00020032051282051292
665 509 -0.0065170940170940156
665 510 0.0066773504273504244
665 511 -0.0010016025641025642
665 512 -0.0034989316239316228
665 513 0.0033386752136752122
665 625 -0.00080128205128205158
665 626 -0.0047008547008547015
665 627 4.3368086899420177e-19
665 628 0.0040064102564102561
665 629 -0.0033119658119658115
665 630 0
665 664 0
665 665 0.055982905982905964
666 430 -0.0004006410256410253
666 431 -0.0066773504273504236
666 432 -0.013194444444444432
666 433 0.0020032051282051272
666 434 -0.0033386752136752114
666 435 -0.0068376068376068281
666 469 -0.0016025641025641021
666 470 0
666 471 -0.047435897435897413
666 472 0.0080128205128205121
666 473 2.1684043449710089e-19
666 474 -0.024679487179487161
666 508 -0.00040064102564102606
666 509 0.0066773504273504253
666 510 -0.013194444444444437
666 511 0.0020032051282051285
666 512 0.0033386752136752127
666 513 -0.0068376068376068341
666 625 -4.3368086899420177e-19
666 626 2.1684043449710089e-19
666 627 0.022008547008546993
666 628 -7.0473141211557788e-19
666 629 1.0842021724855044e-19
666 630 0.010042735042735037
666 664 -8.6736173798840355e-19
666 665 -3.4694469519536142e-18
666 666 0.10940170940170937
667 430 -0.0027866809116809093
667 431 -0.0010016025641025638
667 432 -0.0020032051282051272
667 433 -0.0077813390313390234
667 434 1.6263032587282567e-19
667 435 1.6263032587282567e-19
667 436 -0.0027866809116809102
667 437 0.001001602564102564
667 438 0.0020032051282051276
667 469 -0.0084757834757834723
667 470 2.7105054312137611e-19
667 471 -0.0080128205128205121
667 472 -0.02044159544159543
667 473 2.1684043449710089e-19
667 474 1.1926223897340549e-18
667 475 -0.0084757834757834757
667 476 -3.5236570605778894e-19
667 477 0.0080128205128205138
667 508 -0.0027866809116809106
667 509 0.0010016025641025642
667 510 -0.0020032051282051285
667 511 -0.0077813390313390294
667 512 -2.7105054312137611e-20
667 513 1.6263032587282567e-19
667 514 -0.0027866809116809119
667 515 -0.0010016025641025642
667 516 0.0020032051282051285
667 625 -0.00046296296296296461
667 626 -0.0040064102564102561
667 627 3.2526065174565133e-19
667 628 0.011609686609686604
667 629 -5.4210108624275222e-19
667 630 -2.1684043449710089e-18
667 631 -0.00046296296296296417
667 632 0.0040064102564102561
667 633 -5.4210108624275222e-20
667 664 0.0088319088319088225
667 665 -7.0473141211557788e-19
667 666 0
667 667 0.089173789173789181
668 430 -0.001001602564102564
668 431 -0.003498931623931621
668 432 -0.0033386752136752118
668 433 1.0842021724855044e-19
668 434 -0.013034188034188024
668 435 -0.013354700854700849
668 436 0.001001602564102564
668 437 -0.0034989316239316219
668 438 -0.0033386752136752122
668 469 2.7105054312137611e-19
668 470 -0.0046474358974358931
668 471 3.2526065174565133e-19
668 472 0
668 473 -0.014743589743589733
668 474 3.2526065174565133e-18
668 475 -2.7105054312137611e-19
668 476 -0.0046474358974358965
668 477 1.0842021724855044e-18
668 508 0.0010016025641025644
668 509 -0.0034989316239316232
668 510 0.0033386752136752122
668 511 -2.7105054312137611e-20
668 512 -0.013034188034188033
668 513 0.013354700854700851
668 514 -0.0010016025641025642
668 515 -0.0034989316239316236
668 516 0.0033386752136752131
668 625 -0.0040064102564102561
668 626 -0.0033119658119658115
668 627 1.0842021724855044e-19
668 628 -4.87890977618477e-19
668 629 -0.009401709401709403
668 630 1.3010426069826053e-18
668 631 0.0040064102564102561
668 632 -0.0033119658119658115
668 633 -1.3010426069826053e-18
668 664 -3.7947076036992655e-19
668 665 0.024145299145299136
668 666 -2.6020852139652106e-18
668 667 8.6736173798840355e-19
668 668 0.11196581196581193
669 430 -0.0020032051282051272
669 431 -0.0033386752136752114
669 432 -0.0068376068376068281
669 433 2.1684043449710089e-19
669 434 -0.013354700854700849
669 435 -0.026388888888888865
669 436 0.0020032051282051276
669 437 -0.0033386752136752122
669 438 -0.0068376068376068315
669 469 -0.0080128205128205121
669 470 2.1684043449710089e-19
669 471 -0.024679487179487161
669 472 1.4094628242311558e-18
669 473 2.3852447794681098e-18
669 474 -0.09487179487179484
669 475 0.0080128205128205121
669 476 7.589415207398531e-19
669 477 -0.024679487179487168
669 508 -0.0020032051282051289
669 509 0.0033386752136752127
669 510 -0.006837606837606835
669 511 -5.4210108624275222e-20
669 512 0.013354700854700851
669 513 -0.026388888888888885
669 514 0.0020032051282051285
669 515 0.0033386752136752131
669 516 -0.0068376068376068376
669 625 3.2526065174565133e-19
669 626 4.3368086899420177e-19
669 627 0.010042735042735035
669 628 -1.7347234759768071e-18
669 629 2.6020852139652106e-18
669 630 0.044017094017093993
669 631 1.6263032587282567e-19
669 632 -1.3010426069826053e-18
669 633 0.010042735042735035
669 664 -3.2526065174565133e-19
669 665 -2.6020852139652106e-18
669 666 0.050854700854700841
669 667 -5.2041704279304213e-18
669 668 -1.7347234759768071e-17
669 669 0.2188034188034188
670 433 -0.0027866809116809084
670 434 -0.001001602564102564
670 435 -0.0020032051282051272
670 436 -0.0077813390313390251
670 437 1.8973538018496328e-19
670 438 3.7947076036992655e-19
670 439 -0.0027866809116809097
670 440 0.001001602564102564
670 441 0.0020032051282051272
670 472 -0.0084757834757834705
670 473 3.5236570605778894e-19
670 474 -0.0080128205128205121
670 475 -0.020441595441595434
670 476 -2.1684043449710089e-19
670 477 7.589415207398531e-19
670 478 -0.0084757834757834723
670 479 -5.1499603193061461e-19
670 480 0.0080128205128205138
670 511 -0.0027866809116809106
670 512 0.0010016025641025642
670 513 -0.0020032051282051285
670 514 -0.0077813390313390303
670 515 0
670 516 0
670 517 -0.0027866809116809119
670 518 -0.0010016025641025642
670 519 0.0020032051282051285
670 628 -0.00046296296296296406
670 629 -0.0040064102564102552
670 630 9.7578195523695399e-19
670 631 0.011609686609686601
670 632 -1.0842021724855044e-19
670 633 -2.1684043449710089e-18
670 634 -0.00046296296296296396
670 635 0.0040064102564102561
670 636 -7.0473141211557788e-19
670 667 0.0088319088319088242
670 668 -8.6736173798840355e-19
670 669 2.0599841277224584e-18
670 670 0.089173789173789181
671 433 -0.001001602564102564
671 434 -0.003498931623931621
671 435 -0.0033386752136752114
671 436 2.1684043449710089e-19
671 437 -0.013034188034188026
671 438 -0.013354700854700849
671 439 0.001001602564102564
671 440 -0.003498931623931621
671 441 -0.0033386752136752122
671 472 4.3368086899420177e-19
671 473 -0.0046474358974358922
671 474 1.1926223897340549e-18
671 475 -2.1684043449710089e-19
671 476 -0.014743589743589733
671 477 3.6862873864507151e-18
671 478 -4.3368086899420177e-19
671 479 -0.0046474358974358939
671 480 1.6263032587282567e-18
671 511 0.0010016025641025642
671 512 -0.0034989316239316232
671 513 0.0033386752136752118
671 514 2.7105054312137611e-20
671 515 -0.013034188034188033
671 516 0.013354700854700854
671 517 -0.0010016025641025642
671 518 -0.0034989316239316241
671 519 0.0033386752136752131
671 628 -0.0040064102564102552
671 629 -0.0033119658119658115
671 630 2.0599841277224584e-18
671 631 -5.9631119486702744e-19
671 632 -0.0094017094017094065
671 633 6.5052130349130266e-19
671 634 0.0040064102564102561
671 635 -0.003311965811965811
671 636 1.0842021724855044e-19
671 667 -2.7105054312137611e-19
671 668 0.024145299145299132
671 669 -3.903127820947816e-18
671 670 4.3368086899420177e-19
671 671 0.11196581196581198
672 433 -0.0020032051282051272
672 434 -0.0033386752136752118
672 435 -0.0068376068376068272
672 436 4.3368086899420177e-19
672 437 -0.013354700854700851
672 438 -0.026388888888888865
672 439 0.0020032051282051272
672 440 -0.0033386752136752118
672 441 -0.0068376068376068289
672 472 -0.0080128205128205121
672 473 9.7578195523695399e-19
672 474 -0.024679487179487154
672 475 1.3010426069826053e-18
672 476 3.0357660829594124e-18
672 477 -0.09487179487179484
672 478 0.0080128205128205121
672 479 1.7347234759768071e-18
672 480 -0.024679487179487161
672 511 -0.0020032051282051285
672 512 0.0033386752136752122
672 513 -0.0068376068376068324
672 514 -1.6263032587282567e-19
672 515 0.013354700854700854
672 516 -0.026388888888888889
672 517 0.002003205128205128
672 518 0.0033386752136752131
672 519 -0.0068376068376068359
672 628 8.6736173798840355e-19
672 629 1.8431436932253575e-18
672 630 0.010042735042735035
672 631 -1.7347234759768071e-18
672 632 1.5178830414797062e-18
672 633 0.044017094017093999
672 634 -7.589415207398531e-19
672 635 3.2526065174565133e-19
672 636 0.010042735042735037
672 667 1.1926223897340549e-18
672 668 -3.903127820947816e-18
672 669 0.050854700854700841
672 670 -2.6020852139652106e-18
672 671 -1.6479873021779667e-17
672 672 0.2188034188034188
673 436 -0.0027866809116809093
673 437 -0.001001602564102564
673 438 -0.0020032051282051272
673 439 -0.0077813390313390234
673 440 2.1684043449710089e-19
673 441 3.7947076036992655e-19
673 442 -0.0027866809116809097
673 443 0.001001602564102564
673 444 0.0020032051282051276
673 475 -0.008475783475783474
673 476 2.1684043449710089e-19
673 477 -0.0080128205128205121
673 478 -0.020441595441595427
673 479 0
673 480 4.3368086899420177e-19
673 481 -0.0084757834757834723
673 482 -3.7947076036992655e-19
673 483 0.0080128205128205121
673 514 -0.0027866809116809115
673 515 0.0010016025641025644
673 516 -0.0020032051282051289
673 517 -0.0077813390313390286
673 518 -2.7105054312137611e-20
673 519 -1.6263032587282567e-19
673 520 -0.002786680911680911
673 521 -0.0010016025641025642
673 522 0.0020032051282051285
673 631 -0.00046296296296296439
673 632 -0.0040064102564102552
673 633 2.7105054312137611e-19
673 634 0.011609686609686603
673 635 -5.4210108624275222e-20
673 636 -8.6736173798840355e-19
673 637 -0.00046296296296296526
673 638 0.0040064102564102561
673 639 -4.3368086899420177e-19
673 670 0.008831908831908826
673 671 -1.3010426069826053e-18
673 672 -5.4210108624275222e-19
673 673 0.089173789173789153
674 436 -0.001001602564102564
674 437 -0.0034989316239316219
674 438 -0.0033386752136752127
674 439 2.1684043449710089e-19
674 440 -0.013034188034188024
674 441 -0.013354700854700847
674 442 0.001001602564102564
674 443 -0.0034989316239316202
674 444 -0.0033386752136752109
674 475 2.7105054312137611e-19
674 476 -0.0046474358974358948
674 477 3.2526065174565133e-19
674 478 -2.1684043449710089e-19
674 479 -0.014743589743589733
674 480 2.6020852139652106e-18
674 481 -4.87890977618477e-19
674 482 -0.0046474358974358948
674 483 6.5052130349130266e-19
674 514 0.0010016025641025642
674 515 -0.0034989316239316241
674 516 0.0033386752136752135
674 517 2.7105054312137611e-20
674 518 -0.013034188034188031
674 519 0.013354700854700851
674 520 -0.001001602564102564
674 521 -0.0034989316239316228
674 522 0.0033386752136752118
674 631 -0.0040064102564102561
674 632 -0.0033119658119658132
674 633 -6.5052130349130266e-19
674 634 -3.7947076036992655e-19
674 635 -0.0094017094017094013
674 636 2.1684043449710089e-19
674 637 0.0040064102564102561
674 638 -0.0033119658119658106
674 639 -5.4210108624275222e-19
674 670 -5.9631119486702744e-19
674 671 0.024145299145299139
674 672 -3.0357660829594124e-18
674 673 1.3010426069826053e-18
674 674 0.11196581196581193
675 436 -0.0020032051282051272
675 437 -0.0033386752136752127
675 438 -0.0068376068376068298
675 439 3.2526065174565133e-19
675 440 -0.013354700854700847
675 441 -0.026388888888888865
675 442 0.0020032051282051276
675 443 -0.0033386752136752114
675 444 -0.0068376068376068281
675 475 -0.0080128205128205138
675 476 3.2526065174565133e-19
675 477 -0.024679487179487168
675 478 6.5052130349130266e-19
675 479 1.3010426069826053e-18
675 480 -0.094871794871794826
675 481 0.0080128205128205121
675 482 9.7578195523695399e-19
675 483 -0.024679487179487161
675 514 -0.0020032051282051289
675 515 0.0033386752136752135
675 516 -0.0068376068376068367
675 517 0
675 518 0.013354700854700849
675 519 -0.026388888888888885
675 520 0.002003205128205128
675 521 0.0033386752136752114
675 522 -0.0068376068376068333
675 631 1.0842021724855044e-19
675 632 -9.7578195523695399e-19
675 633 0.010042735042735035
675 634 -1.7347234759768071e-18
675 635 2.1684043449710089e-19
675 636 0.044017094017093986
675 637 -4.87890977618477e-19
675 638 -1.3010426069826053e-18
675 639 0.010042735042735031
675 670 -8.6736173798840355e-19
675 671 -2.6020852139652106e-18
675 672 0.050854700854700841
675 673 -1.7347234759768071e-18
675 674 -1.3877787807814457e-17
675 675 0.21880341880341875
676 439 -0.0027866809116809084
676 440 -0.001001602564102564
676 441 -0.0020032051282051272
676 442 -0.0077813390313390251
676 443 1.6263032587282567e-19
676 444 3.7947076036992655e-19
676 445 -0.0027866809116809102
676 446 0.0010016025641025642
676 447 0.0020032051282051276
676 478 -0.0084757834757834688
676 479 3.5236570605778894e-19
676 480 -0.0080128205128205121
676 481 -0.020441595441595434
676 482 2.1684043449710089e-19
676 483 1.0842021724855044e-18
676 484 -0.0084757834757834723
676 485 -6.2341624917916505e-19
676 486 0.0080128205128205121
676 517 -0.0027866809116809097
676 518 0.0010016025641025642
676 519 -0.0020032051282051285
676 520 -0.0077813390313390303
676 521 -1.3552527156068805e-19
676 522 2.7105054312137611e-19
676 523 -0.0027866809116809119
676 524 -0.0010016025641025644
676 525 0.002003205128205128
676 634 -0.00046296296296296537
676 635 -0.0040064102564102552
676 636 8.6736173798840355e-19
676 637 0.011609686609686604
676 638 -5.9631119486702744e-19
676 639 -4.3368086899420177e-19
676 640 -0.00046296296296296157
676 641 0.0040064102564102561
676 642 -8.6736173798840355e-19
676 673 0.0088319088319088156
676 674 -5.9631119486702744e-19
676 675 1.1926223897340549e-18
676 676 0.089173789173789181
677 439 -0.001001602564102564
677 440 -0.0034989316239316206
677 441 -0.0033386752136752105
677 442 1.0842021724855044e-19
677 443 -0.013034188034188028
677 444 -0.013354700854700852
677 445 0.0010016025641025642
677 446 -0.0034989316239316223
677 447 -0.003338675213675214
677 478 3.2526065174565133e-19
677 479 -0.0046474358974358913
677 480 5.4210108624275222e-19
677 481 0
677 482 -0.014743589743589733
677 483 1.3010426069826053e-18
677 484 -5.6920614055488983e-19
677 485 -0.0046474358974358948
677 486 1.3010426069826053e-18
677 517 0.0010016025641025642
677 518 -0.003498931623931621
677 519 0.0033386752136752109
677 520 8.1315162936412833e-20
677 521 -0.013034188034188033
677 522 0.013354700854700856
677 523 -0.0010016025641025642
677 524 -0.0034989316239316249
677 525 0.003338675213675214
677 634 -0.0040064102564102552
677 635 -0.0033119658119658106
677 636 7.589415207398531e-19
677 637 -4.87890977618477e-19
677 638 -0.0094017094017094065
677 639 2.3852447794681098e-18
677 640 0.0040064102564102561
677 641 -0.0033119658119658115
677 642 3.2526065174565133e-19
677 673 -5.4210108624275222e-19
677 674 0.024145299145299129
677 675 -1.7347234759768071e-18
677 676 8.6736173798840355e-19
677 677 0.11196581196581196
678 439 -0.0020032051282051276
678 440 -0.0033386752136752109
678 441 -0.0068376068376068263
678 442 3.7947076036992655e-19
678 443 -0.013354700854700852
678 444 -0.026388888888888868
678 445 0.0020032051282051276
678 446 -0.0033386752136752135
678 447 -0.0068376068376068333
678 478 -0.0080128205128205121
678 479 3.2526065174565133e-19
678 480 -0.024679487179487147
678 481 1.6263032587282567e-18
678 482 8.6736173798840355e-19
678 483 -0.09487179487179484
678 484 0.0080128205128205121
678 485 2.1684043449710089e-18
678 486 -0.024679487179487168
678 517 -0.0020032051282051285
678 518 0.0033386752136752118
678 519 -0.0068376068376068315
678 520 -5.4210108624275222e-20
678 521 0.013354700854700852
678 522 -0.026388888888888885
678 523 0.002003205128205128
678 524 0.0033386752136752144
678 525 -0.0068376068376068393
678 634 6.5052130349130266e-19
678 635 5.4210108624275222e-19
678 636 0.010042735042735031
678 637 -8.6736173798840355e-19
678 638 2.3852447794681098e-18
678 639 0.044017094017094006
678 640 -8.1315162936412833e-19
678 641 -4.3368086899420177e-19
678 642 0.010042735042735042
678 673 8.6736173798840355e-19
678 674 -2.1684043449710089e-18
678 675 0.050854700854700827
678 676 -1.7347234759768071e-18
678 677 -1.6479873021779667e-17
678 678 0.21880341880341883
679 442 -0.002786680911680911
679 443 -0.001001602564102564
679 444 -0.0020032051282051276
679 445 -0.0077813390313390251
679 446 1.0842021724855044e-19
679 447 5.4210108624275222e-19
679 448 -0.0027866809116809097
679 449 0.0010016025641025642
679 450 0.0020032051282051272
679 481 -0.0084757834757834757
679 482 8.1315162936412833e-20
679 483 -0.0080128205128205121
679 484 -0.020441595441595434
679 485 -2.1684043449710089e-19
679 486 1.6263032587282567e-18
679 487 -0.0084757834757834723
679 488 -1.0842021724855044e-19
679 489 0.0080128205128205121
679 520 -0.0027866809116809123
679 521 0.0010016025641025642
679 522 -0.0020032051282051285
679 523 -0.0077813390313390303
679 524 -1.3552527156068805e-19
679 525 1.0842021724855044e-19
679 526 -0.0027866809116809106
679 527 -0.001001602564102564
679 528 0.002003205128205128
679 637 -0.00046296296296296244
679 638 -0.0040064102564102552
679 639 0
679 640 0.011609686609686604
679 641 -5.9631119486702744e-19
679 642 -8.6736173798840355e-19
679 643 -0.00046296296296296509
679 644 0.0040064102564102561
679 645 -7.0473141211557788e-19
679 676 0.0088319088319088364
679 677 -1.5178830414797062e-18
679 678 -1.5178830414797062e-18
679 679 0.089173789173789181
680 442 -0.0010016025641025642
680 443 -0.0034989316239316241
680 444 -0.0033386752136752144
680 445 1.6263032587282567e-19
680 446 -0.01303418803418803
680 447 -0.013354700854700849
680 448 0.0010016025641025642
680 449 -0.003498931623931621
680 450 -0.0033386752136752118
680 481 1.6263032587282567e-19
680 482 -0.0046474358974358965
680 483 -7.589415207398531e-19
680 484 -4.3368086899420177e-19
680 485 -0.014743589743589735
680 486 -2.1684043449710089e-19
680 487 -8.1315162936412833e-20
680 488 -0.0046474358974358931
680 489 -3.2526065174565133e-19
680 520 0.0010016025641025642
680 521 -0.0034989316239316249
680 522 0.003338675213675214
680 523 -5.4210108624275222e-20
680 524 -0.013034188034188035
680 525 0.013354700854700854
680 526 -0.0010016025641025642
680 527 -0.0034989316239316219
680 528 0.0033386752136752109
680 637 -0.0040064102564102561
680 638 -0.0033119658119658145
680 639 -1.4094628242311558e-18
680 640 -8.1315162936412833e-19
680 641 -0.0094017094017094065
680 642 2.1684043449710089e-18
680 643 0.0040064102564102561
680 644 -0.0033119658119658132
680 645 -1.8431436932253575e-18
680 676 -1.3010426069826053e-18
680 677 0.02414529914529915
680 678 -8.6736173798840355e-19
680 679 4.3368086899420177e-19
680 680 0.11196581196581197
681 442 -0.0020032051282051276
681 443 -0.0033386752136752144
681 444 -0.006837606837606835
681 445 5.4210108624275222e-19
681 446 -0.013354700854700852
681 447 -0.026388888888888868
681 448 0.0020032051282051272
681 449 -0.0033386752136752118
681 450 -0.0068376068376068281
681 481 -0.0080128205128205121
681 482 3.2526065174565133e-19
681 483 -0.024679487179487182
681 484 1.6263032587282567e-18
681 485 1.7347234759768071e-18
681 486 -0.09487179487179484
681 487 0.0080128205128205121
681 488 -2.1684043449710089e-19
681 489 -0.024679487179487161
681 520 -0.0020032051282051289
681 521 0.0033386752136752144
681 522 -0.0068376068376068393
681 523 5.4210108624275222e-20
681 524 0.013354700854700854
681 525 -0.026388888888888889
681 526 0.002003205128205128
681 527 0.0033386752136752114
681 528 -0.0068376068376068333
681 637 -1.6263032587282567e-19
681 638 -2.3852447794681098e-18
681 639 0.010042735042735042
681 640 -4.3368086899420177e-19
681 641 2.6020852139652106e-18
681 642 0.044017094017093999
681 643 -5.9631119486702744e-19
681 644 -9.7578195523695399e-19
681 645 0.010042735042735033
681 676 -1.7347234759768071e-18
681 677 4.3368086899420177e-19
681 678 0.050854700854700868
681 679 2.6020852139652106e-18
681 680 -1.8214596497756474e-17
681 681 0.2188034188034188
682 445 -0.0027866809116809089
682 446 -0.0010016025641025638
682 447 -0.0020032051282051276
682 448 -0.0077813390313390251
682 449 1.6263032587282567e-19
682 450 1.6263032587282567e-19
682 451 -0.002786680911680911
682 452 0.001001602564102564
682 453 0.0020032051282051276
682 484 -0.0084757834757834723
682 485 5.9631119486702744e-19
682 486 -0.0080128205128205121
682 487 -0.020441595441595434
682 488 0
682 489 5.4210108624275222e-19
682 490 -0.0084757834757834792
682 491 -8.6736173798840355e-19
682 492 0.0080128205128205138
682 523 -0.002786680911680911
682 524 0.0010016025641025642
682 525 -0.0020032051282051285
682 526 -0.0077813390313390303
682 527 -1.6263032587282567e-19
682 528 1.0842021724855044e-19
682 529 -0.0027866809116809132
682 530 -0.0010016025641025642
682 531 0.0020032051282051285
682 640 -0.00046296296296296363
682 641 -0.0040064102564102543
682 642 3.2526065174565133e-19
682 643 0.011609686609686604
682 644 -3.2526065174565133e-19
682 645 -2.1684043449710089e-18
682 646 -0.00046296296296296146
682 647 0.0040064102564102552
682 648 4.3368086899420177e-19
682 679 0.008831908831908819
682 680 4.87890977618477e-19
682 681 -8.6736173798840355e-19
682 682 0.089173789173789167
683 445 -0.001001602564102564
683 446 -0.0034989316239316202
683 447 -0.0033386752136752114
683 448 1.8973538018496328e-19
683 449 -0.013034188034188028
683 450 -0.013354700854700852
683 451 0.0010016025641025638
683 452 -0.0034989316239316228
683 453 -0.0033386752136752127
683 484 7.0473141211557788e-19
683 485 -0.0046474358974358931
683 486 2.6020852139652106e-18
683 487 0
683 488 -0.014743589743589736
683 489 3.4694469519536142e-18
683 490 -8.6736173798840355e-19
683 491 -0.0046474358974359
683 492 2.4936649967166602e-18
683 523 0.0010016025641025644
683 524 -0.0034989316239316232
683 525 0.0033386752136752122
683 526 0
683 527 -0.013034188034188035
683 528 0.013354700854700854
683 529 -0.0010016025641025644
683 530 -0.0034989316239316262
683 531 0.0033386752136752153
683 640 -0.0040064102564102543
683 641 -0.0033119658119658089
683 642 -6.5052130349130266e-19
683 643 -4.3368086899420177e-19
683 644 -0.0094017094017094065
683 645 -1.5178830414797062e-18
683 646 0.0040064102564102552
683 647 -0.0033119658119658097
683 648 -1.5178830414797062e-18
683 679 9.2157184661267877e-19
683 680 0.024145299145299129
683 681 -1.3010426069826053e-18
683 682 1.3010426069826053e-18
683 683 0.11196581196581196
684 445 -0.0020032051282051272
684 446 -0.0033386752136752114
684 447 -0.0068376068376068289
684 448 2.1684043449710089e-19
684 449 -0.013354700854700852
684 450 -0.026388888888888868
684 451 0.0020032051282051276
684 452 -0.003338675213675214
684 453 -0.0068376068376068359
684 484 -0.0080128205128205121
684 485 3.3610267347050637e-18
684 486 -0.024679487179487158
684 487 7.589415207398531e-19
684 488 2.3852447794681098e-18
684 489 -0.09487179487179484
684 490 0.0080128205128205138
684 491 2.3852447794681098e-18
684 492 -0.024679487179487189
684 523 -0.0020032051282051289
684 524 0.0033386752136752122
684 525 -0.0068376068376068341
684 526 -1.0842021724855044e-19
684 527 0.013354700854700852
684 528 -0.026388888888888889
684 529 0.0020032051282051285
684 530 0.0033386752136752153
684 531 -0.0068376068376068419
684 640 2.1684043449710089e-19
684 641 -1.951563910473908e-18
684 642 0.010042735042735035
684 643 -2.1684043449710089e-18
684 644 -6.5052130349130266e-19
684 645 0.044017094017093999
684 646 4.3368086899420177e-19
684 647 -2.1684043449710089e-18
684 648 0.010042735042735042
684 679 0
684 680 0
684 681 0.050854700854700834
684 682 -6.0715321659188248e-18
684 683 -1.5612511283791264e-17
684 684 0.21880341880341883
685 448 -0.0027866809116809097
685 449 -0.001001602564102564
685 450 -0.0020032051282051272
685 451 -0.0077813390313390199
685 452 5.4210108624275222e-20
685 453 4.3368086899420177e-19
685 454 -0.0027866809116809071
685 455 0.0010016025641025642
685 456 0.0020032051282051272
685 487 -0.0084757834757834705
685 488 -1.6263032587282567e-19
685 489 -0.0080128205128205121
685 490 -0.02044159544159542
685 491 -6.5052130349130266e-19
685 492 0
685 493 -0.0084757834757834653
685 494 5.1499603193061461e-19
685 495 0.0080128205128205121
685 526 -0.002786680911680911
685 527 0.001001602564102564
685 528 -0.0020032051282051285
685 529 -0.007781339031339026
685 530 -1.6263032587282567e-19
685 531 -5.4210108624275222e-20
685 532 -0.0027866809116809076
685 533 -0.0010016025641025638
685 534 0.002003205128205128
685 643 -0.00046296296296296282
685 644 -0.0040064102564102561
685 645 1.1384122811097797e-18
685 646 0.011609686609686601
685 647 -1.1926223897340549e-18
685 648 -8.6736173798840355e-19
685 649 -0.00046296296296297014
685 650 0.0040064102564102569
685 651 -1.5178830414797062e-18
685 682 0.0088319088319088381
685 683 -2.3310346708438345e-18
685 684 3.3610267347050637e-18
685 685 0.089173789173789153
686 448 -0.001001602564102564
686 449 -0.0034989316239316228
686 450 -0.0033386752136752135
686 451 2.7105054312137611e-20
686 452 -0.013034188034188023
686 453 -0.013354700854700845
686 454 0.001001602564102564
686 455 -0.003498931623931618
686 456 -0.0033386752136752083
686 487 -1.3552527156068805e-19
686 488 -0.0046474358974358922
686 489 -1.5178830414797062e-18
686 490 -6.5052130349130266e-19
686 491 -0.014743589743589728
686 492 -1.0842021724855044e-18
686 493 4.6078592330633938e-19
686 494 -0.004647435897435887
686 495 -5.2041704279304213e-18
686 526 0.001001602564102564
686 527 -0.0034989316239316223
686 528 0.0033386752136752131
686 529 -2.439454888092385e-19
686 530 -0.013034188034188026
686 531 0.013354700854700845
686 532 -0.001001602564102564
686 533 -0.0034989316239316167
686 534 0.0033386752136752066
686 643 -0.0040064102564102561
686 644 -0.0033119658119658154
686 645 3.0357660829594124e-18
686 646 -9.2157184661267877e-19
686 647 -0.0094017094017093961
686 648 2.1684043449710089e-19
686 649 0.0040064102564102561
686 650 -0.0033119658119658158
686 651 4.1199682554449168e-18
686 682 -2.4936649967166602e-18
686 683 0.024145299145299146
686 684 -4.3368086899420177e-18
686 685 -1.3010426069826053e-18
686 686 0.11196581196581191
687 448 -0.0020032051282051272
687 449 -0.003338675213675214
687 450 -0.0068376068376068307
687 451 4.3368086899420177e-19
687 452 -0.013354700854700845
687 453 -0.026388888888888854
687 454 0.0020032051282051272
687 455 -0.0033386752136752075
687 456 -0.0068376068376068211
687 487 -0.0080128205128205121
687 488 -1.8431436932253575e-18
687 489 -0.024679487179487161
687 490 9.7578195523695399e-19
687 491 1.951563910473908e-18
687 492 -0.094871794871794798
687 493 0.0080128205128205121
687 494 -4.0115480381963664e-18
687 495 -0.024679487179487127
687 526 -0.0020032051282051285
687 527 0.0033386752136752131
687 528 -0.0068376068376068341
687 529 5.4210108624275222e-20
687 530 0.013354700854700845
687 531 -0.026388888888888871
687 532 0.0020032051282051276
687 533 0.0033386752136752075
687 534 -0.0068376068376068246
687 643 1.1926223897340549e-18
687 644 2.6020852139652106e-18
687 645 0.01004273504273504
687 646 -8.6736173798840355e-19
687 647 3.903127820947816e-18
687 648 0.044017094017093986
687 649 -1.3552527156068805e-18
687 650 4.0115480381963664e-18
687 651 0.010042735042735021
687 682 3.6862873864507151e-18
687 683 -4.7704895589362195e-18
687 684 0.050854700854700861
687 685 -2.6020852139652106e-18
687 686 -1.214306433183765e-17
687 687 0.21880341880341869
688 451 -0.002786680911680908
688 452 -0.0010016025641025638
688 453 -0.0020032051282051272
688 454 -0.0077813390313390199
688 455 -1.8973538018496328e-19
688 456 1.0842021724855044e-19
688 457 -0.0027866809116809128
688 458 0.0010016025641025642
688 459 0.002003205128205128
688 490 -0.0084757834757834688
688 491 1.1926223897340549e-18
688 492 -0.0080128205128205121
688 493 -0.020441595441595416
688 494 -1.7347234759768071e-18
688 495 -7.589415207398531e-19
688 496 -0.0084757834757834844
688 497 3.2526065174565133e-19
688 498 0.0080128205128205156
688 529 -0.0027866809116809102
688 530 0.0010016025641025642
688 531 -0.0020032051282051285
688 532 -0.0077813390313390251
688 533 -6.5052130349130266e-19
688 534 -3.2526065174565133e-19
688 535 -0.0027866809116809136
688 536 -0.001001602564102564
688 537 0.0020032051282051289
688 646 -0.00046296296296296629
688 647 -0.0040064102564102543
688 648 -4.3368086899420177e-19
688 649 0.011609686609686603
688 650 -1.951563910473908e-18
688 651 -2.6020852139652106e-18
688 652 -0.00046296296296296455
688 653 0.0040064102564102561
688 654 1.7347234759768071e-18
688 685 0.0088319088319087947
688 686 3.0357660829594124e-18
688 687 -4.1199682554449168e-18
688 688 0.089173789173789139
689 451 -0.0010016025641025638
689 452 -0.0034989316239316167
689 453 -0.0033386752136752062
689 454 -2.7105054312137611e-19
689 455 -0.013034188034188019
689 456 -0.013354700854700845
689 457 0.0010016025641025642
689 458 -0.0034989316239316254
689 459 -0.0033386752136752157
689 490 1.2739375526704677e-18
689 491 -0.0046474358974358922
689 492 4.2283884726934673e-18
689 493 -1.951563910473908e-18
689 494 -0.014743589743589724
689 495 2.8189256484623115e-18
689 496 2.9815559743351372e-19
689 497 -0.0046474358974359052
689 498 -1.8431436932253575e-18
689 529 0.0010016025641025642
689 530 -0.0034989316239316219
689 531 0.0033386752136752105
689 532 -3.7947076036992655e-19
689 533 -0.013034188034188026
689 534 0.013354700854700845
689 535 -0.001001602564102564
689 536 -0.0034989316239316254
689 537 0.003338675213675214
689 646 -0.0040064102564102543
689 647 -0.0033119658119658032
689 648 1.0842021724855044e-18
689 649 -2.0057740190981832e-18
689 650 -0.0094017094017093995
689 651 -1.951563910473908e-18
689 652 0.0040064102564102561
689 653 -0.0033119658119658175
689 654 -9.2157184661267877e-18
689 685 3.2526065174565133e-18
689 686 0.024145299145299098
689 687 -1.0408340855860843e-17
689 688 -5.6378512969246231e-18
689 689 0.1119658119658119
690 451 -0.0020032051282051272
690 452 -0.0033386752136752066
690 453 -0.0068376068376068255
690 454 0
690 455 -0.013354700854700845
690 456 -0.026388888888888847
690 457 0.0020032051282051285
690 458 -0.0033386752136752161
690 459 -0.0068376068376068411
690 490 -0.0080128205128205121
690 491 5.0957502106818708e-18
690 492 -0.024679487179487147
690 493 -6.5052130349130266e-19
690 494 3.4694469519536142e-18
690 495 -0.094871794871794771
690 496 0.0080128205128205156
690 497 -1.6263032587282567e-18
690 498 -0.024679487179487203
690 529 -0.0020032051282051285
690 530 0.0033386752136752105
690 531 -0.0068376068376068307
690 532 -5.9631119486702744e-19
690 533 0.013354700854700845
690 534 -0.026388888888888875
690 535 0.0020032051282051293
690 536 0.0033386752136752131
690 537 -0.0068376068376068463
690 646 -4.87890977618477e-19
690 647 -5.4210108624275222e-19
690 648 0.010042735042735024
690 649 -3.0357660829594124e-18
690 650 -6.2883726004159257e-18
690 651 0.044017094017093979
690 652 1.7347234759768071e-18
690 653 -9.8662397696180903e-18
690 654 0.010042735042735037
690 685 -3.903127820947816e-18
690 686 -6.9388939039072284e-18
690 687 0.050854700854700771
690 688 -8.6736173798840355e-18
690 689 1.7347234759768071e-18
690 690 0.21880341880341869
691 454 -0.0027866809116809076
691 455 -0.0010016025641025638
691 456 -0.0020032051282051267
691 457 -0.0077813390313390294
691 458 2.1684043449710089e-19
691 459 2.7105054312137611e-19
691 460 -0.0027866809116809084
691 461 0.0010016025641025638
691 462 0.0020032051282051272
691 493 -0.0084757834757834636
691 494 1.0570971181733668e-18
691 495 -0.0080128205128205104
691 496 -0.020441595441595448
691 497 4.3368086899420177e-19
691 498 1.0842021724855044e-19
691 499 -0.0084757834757834688
691 500 -1.3281476612947429e-18
691 501 0.0080128205128205121
691 532 -0.0027866809116809097
691 533 0.0010016025641025644
691 534 -0.002003205128205128
691 535 -0.0077813390313390355
691 536 -8.1315162936412833e-20
691 537 5.4210108624275222e-20
691 538 -0.002786680911680911
691 539 -0.0010016025641025644
691 540 0.002003205128205128
691 649 -0.00046296296296296146
691 650 -0.0040064102564102543
691 651 2.8731357570865868e-18
691 652 0.011609686609686606
691 653 5.4210108624275222e-20
691 654 -8.6736173798840355e-19
691 655 -0.00046296296296295973
691 656 0.0040064102564102561
691 657 -2.3852447794681098e-18
691 688 0.0088319088319088329
691 689 2.1141942363467336e-18
691 690 8.7820375971325859e-18
691 691 0.089173789173789195
692 454 -0.0010016025641025638
692 455 -0.0034989316239316184
692 456 -0.0033386752136752114
692 457 2.1684043449710089e-19
692 458 -0.013034188034188033
692 459 -0.013354700854700852
692 460 0.0010016025641025638
692 461 -0.0034989316239316206
692 462 -0.0033386752136752118
692 493 1.0299920638612292e-18
692 494 -0.0046474358974358861
692 495 6.8304736866586779e-18
692 496 2.1684043449710089e-19
692 497 -0.014743589743589742
692 498 -1.951563910473908e-18
692 499 -1.3010426069826053e-18
692 500 -0.0046474358974358896
692 501 4.3368086899420177e-18
692 532 0.0010016025641025644
692 533 -0.0034989316239316232
692 534 0.0033386752136752122
692 535 -2.7105054312137611e-20
692 536 -0.013034188034188038
692 537 0.013354700854700863
692 538 -0.0010016025641025644
692 539 -0.0034989316239316254
692 540 0.0033386752136752157
692 649 -0.0040064102564102543
692 650 -0.0033119658119658071
692 651 8.6736173798840355e-19
692 652 -3.7947076036992655e-19
692 653 -0.0094017094017094099
692 654 9.540979117872439e-18
692 655 0.0040064102564102552
692 656 -0.0033119658119658071
692 657 5.6378512969246231e-18
692 688 2.4936649967166602e-18
692 689 0.024145299145299143
692 690 4.7704895589362195e-18
692 691 1.3010426069826053e-18
692 692 0.111965811965812
693 454 -0.0020032051282051267
693 455 -0.0033386752136752114
693 456 -0.0068376068376068237
693 457 4.3368086899420177e-19
693 458 -0.013354700854700854
693 459 -0.026388888888888875
693 460 0.0020032051282051267
693 461 -0.0033386752136752118
693 462 -0.0068376068376068281
693 493 -0.0080128205128205104
693 494 5.0957502106818708e-18
693 495 -0.024679487179487137
693 496 9.7578195523695399e-19
693 497 -3.6862873864507151e-18
693 498 -0.094871794871794868
693 499 0.0080128205128205121
693 500 3.7947076036992655e-18
693 501 -0.024679487179487154
693 532 -0.002003205128205128
693 533 0.0033386752136752122
693 534 -0.0068376068376068289
693 535 -1.6263032587282567e-19
693 536 0.013354700854700863
693 537 -0.026388888888888899
693 538 0.0020032051282051276
693 539 0.0033386752136752157
693 540 -0.006837606837606835
693 649 2.6020852139652106e-18
693 650 3.5778671692021646e-18
693 651 0.01004273504273504
693 652 -1.3010426069826053e-18
693 653 1.1275702593849246e-17
693 654 0.044017094017094013
693 655 -2.1141942363467336e-18
693 656 8.3483567281383841e-18
693 657 0.010042735042735045
693 688 8.9988780316296868e-18
693 689 2.6020852139652106e-18
693 690 0.050854700854700861
693 691 -5.2041704279304213e-18
693 692 -3.3827107781547738e-17
693 693 0.21880341880341891
694 457 -0.0027866809116809132
694 458 -0.0010016025641025642
694 459 -0.0020032051282051276
694 460 -0.0077813390313390234
694 461 2.9815559743351372e-19
694 462 1.0299920638612292e-18
694 463 -0.0027866809116809076
694 464 0.001001602564102564
694 465 0.0020032051282051272
694 496 -0.0084757834757834827
694 497 -5.9631119486702744e-19
694 498 -0.0080128205128205138
694 499 -0.02044159544159543
694 500 8.6736173798840355e-19
694 501 3.2526065174565133e-18
694 502 -0.0084757834757834688
694 503 -3.7947076036992655e-19
694 504 0.0080128205128205121
694 535 -0.0027866809116809132
694 536 0.001001602564102564
694 537 -0.0020032051282051289
694 538 -0.0077813390313390286
694 539 1.8973538018496328e-19
694 540 4.3368086899420177e-19
694 541 -0.0027866809116809093
694 542 -0.0010016025641025642
694 543 0.002003205128205128
694 652 -0.0004629629629629632
694 653 -0.0040064102564102561
694 654 -1.4094628242311558e-18
694 655 0.011609686609686603
694 656 2.7105054312137611e-19
694 657 8.6736173798840355e-19
694 658 -0.00046296296296296802
694 659 0.0040064102564102561
694 660 -9.2157184661267877e-19
694 691 0.0088319088319088433
694 692 -3.9573379295720912e-18
694 693 -7.3725747729014302e-18
694 694 0.089173789173789167
695 457 -0.0010016025641025642
695 458 -0.0034989316239316267
695 459 -0.0033386752136752153
695 460 3.7947076036992655e-19
695 461 -0.013034188034188026
695 462 -0.013354700854700851
695 463 0.001001602564102564
695 464 -0.0034989316239316176
695 465 -0.0033386752136752088
695 496 -5.4210108624275222e-19
695 497 -0.0046474358974359035
695 498 -5.0957502106818708e-18
695 499 8.6736173798840355e-19
695 500 -0.014743589743589735
695 501 6.7220534694101275e-18
695 502 -3.7947076036992655e-19
695 503 -0.0046474358974358896
695 504 8.6736173798840355e-19
695 535 0.001001602564102564
695 536 -0.0034989316239316258
695 537 0.0033386752136752157
695 538 8.1315162936412833e-20
695 539 -0.013034188034188033
695 540 0.013354700854700849
695 541 -0.0010016025641025642
695 542 -0.0034989316239316197
695 543 0.0033386752136752096
695 652 -0.0040064102564102561
695 653 -0.0033119658119658193
695 654 -7.589415207398531e-19
695 655 1.0842021724855044e-19
695 656 -0.009401709401709403
695 657 -9.9746599868666408e-18
695 658 0.0040064102564102561
695 659 -0.0033119658119658097
695 660 9.7578195523695399e-19
695 691 -4.0115480381963664e-18
695 692 0.024145299145299157
695 693 -1.0408340855860843e-17
695 694 5.2041704279304213e-18
695 695 0.11196581196581193
696 457 -0.0020032051282051276
696 458 -0.0033386752136752161
696 459 -0.0068376068376068411
696 460 1.2468324983583301e-18
696 461 -0.013354700854700852
696 462 -0.026388888888888865
696 463 0.0020032051282051272
696 464 -0.0033386752136752092
696 465 -0.0068376068376068229
696 496 -0.0080128205128205156
696 497 -3.4694469519536142e-18
696 498 -0.024679487179487203
696 499 4.0115480381963664e-18
696 500 1.0191500421363742e-17
696 501 -0.094871794871794812
696 502 0.0080128205128205121
696 503 1.8431436932253575e-18
696 504 -0.02467948717948714
696 535 -0.0020032051282051289
696 536 0.0033386752136752148
696 537 -0.0068376068376068454
696 538 3.7947076036992655e-19
696 539 0.013354700854700847
696 540 -0.026388888888888878
696 541 0.002003205128205128
696 542 0.0033386752136752088
696 543 -0.0068376068376068289
696 652 -1.5720931501039814e-18
696 653 -2.7105054312137611e-18
696 654 0.010042735042735042
696 655 4.3368086899420177e-19
696 656 -1.1275702593849246e-17
696 657 0.044017094017093986
696 658 -1.0299920638612292e-18
696 659 -2.0599841277224584e-18
696 660 0.010042735042735024
696 691 -6.8304736866586779e-18
696 692 -6.5052130349130266e-18
696 693 0.050854700854700882
696 694 7.8062556418956319e-18
696 695 1.1275702593849246e-17
696 696 0.21880341880341878
697 460 -0.002786680911680908
697 461 -0.001001602564102564
697 462 -0.0020032051282051276
697 463 -0.0077813390313390234
697 464 3.7947076036992655e-19
697 465 1.3552527156068805e-18
697 466 -0.0027866809116809076
697 467 0.0010016025641025638
697 468 0.0020032051282051267
697 499 -0.0084757834757834723
697 500 1.6263032587282567e-19
697 501 -0.0080128205128205121
697 502 -0.020441595441595427
697 503 1.3010426069826053e-18
697 504 3.7947076036992655e-18
697 505 -0.0084757834757834653
697 506 -1.3823577699190182e-18
697 507 0.0080128205128205086
697 538 -0.0027866809116809102
697 539 0.0010016025641025642
697 540 -0.0020032051282051285
697 541 -0.0077813390313390303
697 542 2.1684043449710089e-19
697 543 9.2157184661267877e-19
697 544 -0.002786680911680911
697 545 -0.0010016025641025644
697 546 0.0020032051282051276
697 655 -0.00046296296296296786
697 656 -0.0040064102564102552
697 657 -1.6263032587282567e-19
697 658 0.011609686609686603
697 659 4.3368086899420177e-19
697 660 2.1684043449710089e-18
697 661 -0.00046296296296295886
697 662 0.0040064102564102552
697 663 -3.3068166260807885e-18
697 694 0.0088319088319088
697 695 -7.589415207398531e-19
697 696 -2.2768245622195593e-18
697 697 0.089173789173789153
698 460 -0.0010016025641025638
698 461 -0.0034989316239316189
698 462 -0.0033386752136752101
698 463 3.5236570605778894e-19
698 464 -0.013034188034188024
698 465 -0.013354700854700849
698 466 0.0010016025641025638
698 467 -0.0034989316239316193
698 468 -0.0033386752136752122
698 499 2.1684043449710089e-19
698 500 -0.0046474358974358931
698 501 1.7347234759768071e-18
698 502 1.0842021724855044e-18
698 503 -0.014743589743589733
698 504 2.3852447794681098e-18
698 505 -1.3552527156068805e-18
698 506 -0.0046474358974358861
698 507 6.1799523831673753e-18
698 538 0.0010016025641025642
698 539 -0.003498931623931621
698 540 0.0033386752136752092
698 541 2.1684043449710089e-19
698 542 -0.013034188034188033
698 543 0.013354700854700856
698 544 -0.0010016025641025647
698 545 -0.0034989316239316249
698 546 0.0033386752136752153
698 655 -0.0040064102564102552
698 656 -0.0033119658119658102
698 657 -3.3610267347050637e-18
698 658 5.4210108624275222e-20
698 659 -0.0094017094017094047
698 660 7.8062556418956319e-18
698 661 0.0040064102564102552
698 662 -0.0033119658119658071
698 663 8.6736173798840355e-18
698 694 -6.5052130349130266e-19
698 695 0.024145299145299105
698 696 2.1684043449710089e-18
698 697 4.3368086899420177e-18
698 698 0.11196581196581194
699 460 -0.0020032051282051276
699 461 -0.0033386752136752096
699 462 -0.0068376068376068263
699 463 1.4094628242311558e-18
699 464 -0.013354700854700847
699 465 -0.026388888888888858
699 466 0.0020032051282051263
699 467 -0.0033386752136752127
699 468 -0.0068376068376068263
699 499 -0.0080128205128205138
699 500 6.5052130349130266e-19
699 501 -0.024679487179487154
699 502 4.7704895589362195e-18
699 503 -2.1684043449710089e-19
699 504 -0.094871794871794826
699 505 0.0080128205128205086
699 506 5.2041704279304213e-18
699 507 -0.024679487179487147
699 538 -0.0020032051282051289
699 539 0.0033386752136752096
699 540 -0.0068376068376068315
699 541 7.589415207398531e-19
699 542 0.013354700854700854
699 543 -0.026388888888888885
699 544 0.0020032051282051276
699 545 0.0033386752136752144
699 546 -0.0068376068376068324
699 655 -1.6263032587282567e-19
699 656 -2.1684043449710089e-18
699 657 0.010042735042735024
699 658 2.6020852139652106e-18
699 659 1.0191500421363742e-17
699 660 0.044017094017093986
699 661 -3.1441863002079629e-18
699 662 8.565197162635485e-18
699 663 0.010042735042735049
699 694 -2.0599841277224584e-18
699 695 -2.6020852139652106e-18
699 696 0.050854700854700785
699 697 1.214306433183765e-17
699 698 -3.3827107781547738e-17
699 699 0.2188034188034188
700 463 -0.0027866809116809145
700 464 -0.0010016025641025642
700 465 -0.002003205128205128
700 466 -0.003890669515669516
700 467 -0.00020032051282051257
700 468 -0.00040064102564102443
700 502 -0.0084757834757834879
700 503 -7.3183646642771549e-19
700 504 -0.0080128205128205156
700 505 -0.010220797720797727
700 506 8.6736173798840355e-19
700 507 -0.001602564102564099
700 541 -0.0027866809116809149
700 542 0.001001602564102564
700 543 -0.0020032051282051293
700 544 -0.0038906695156695199
700 545 0.00020032051282051306
700 546 -0.00040064102564102481
700 658 -0.00046296296296296287
700 659 -0.0040064102564102569
700 660 -2.3310346708438345e-18
700 661 0.0058048433048433021
700 662 -0.00080128205128205071
700 663 2.1684043449710089e-18
700 697 0.0088319088319088468
700 698 -4.5536491244391186e-18
700 699 -1.1384122811097797e-17
700 700 0.044586894586894611
701 463 -0.0010016025641025642
701 464 -0.003498931623931628
701 465 -0.0033386752136752179
701 466 0.00020032051282051298
701 467 -0.0065170940170940191
701 468 -0.0066773504273504323
701 502 -6.2341624917916505e-19
701 503 -0.0046474358974359069
701 504 -3.7947076036992655e-18
701 505 8.6736173798840355e-19
701 506 -0.0073717948717948734
701 507 6.5052130349130266e-19
701 541 0.001001602564102564
701 542 -0.0034989316239316267
701 543 0.0033386752136752161
701 544 -0.00020032051282051268
701 545 -0.0065170940170940234
701 546 0.0066773504273504305
701 658 -0.0040064102564102561
701 659 -0.0033119658119658206
701 660 -5.2041704279304213e-18
701 661 0.0008012820512820519
701 662 -0.0047008547008547076
701 663 3.6862873864507151e-18
701 697 -4.0657581468206416e-18
701 698 0.02414529914529916
701 699 -4.7704895589362195e-18
701 700 3.903127820947816e-18
701 701 0.05598290598290602
702 463 -0.002003205128205128
702 464 -0.0033386752136752187
702 465 -0.0068376068376068463
702 466 0.00040064102564102649
702 467 -0.0066773504273504323
702 468 -0.013194444444444444
702 502 -0.0080128205128205156
702 503 -3.7947076036992655e-18
702 504 -0.024679487179487224
702 505 0.0016025641025641064
702 506 4.1199682554449168e-18
702 507 -0.047435897435897462
702 541 -0.0020032051282051293
702 542 0.0033386752136752157
702 543 -0.0068376068376068515
702 544 0.00040064102564102666
702 545 0.0066773504273504323
702 546 -0.013194444444444457
702 658 -2.439454888092385e-18
702 659 -5.7462715141731735e-18
702 660 0.010042735042735043
702 661 2.6020852139652106e-18
702 662 2.1684043449710089e-19
702 663 0.022008547008547014
702 697 -1.1167282376600696e-17
702 698 -5.2041704279304213e-18
702 699 0.050854700854700889
702 700 1.0408340855860843e-17
702 701 -9.540979117872439e-18
702 702 0.10940170940170948
703 469 -0.0038906695156695134
703 470 0.000200320512820513
703 471 0.00040064102564102579
703 472 -0.0027866809116809097
703 473 0.0010016025641025642
703 474 0.002003205128205128
703 508 -0.010220797720797713
703 509 0
703 510 0.0016025641025641027
703 511 -0.0084757834757834723
703 512 -4.3368086899420177e-19
703 513 0.0080128205128205121
703 547 -0.0038906695156695121
703 548 -0.00020032051282051298
703 549 0.00040064102564102536
703 550 -0.0027866809116809097
703 551 -0.0010016025641025642
703 552 0.0020032051282051272
703 664 0.0058048433048433074
703 665 0.00080128205128205147
703 666 -4.3368086899420177e-19
703 667 -0.00046296296296296341
703 668 0.0040064102564102561
703 669 -1.3552527156068805e-18
703 703 0.044586894586894583
704 469 -0.00020032051282051262
704 470 -0.0065170940170940148
704 471 -0.0066773504273504236
704 472 0.001001602564102564
704 473 -0.003498931623931621
704 474 -0.0033386752136752118
704 508 0
704 509 -0.0073717948717948647
704 510 1.0842021724855044e-18
704 511 -5.1499603193061461e-19
704 512 -0.0046474358974358931
704 513 6.5052130349130266e-19
704 547 0.00020032051282051273
704 548 -0.0065170940170940148
704 549 0.0066773504273504244
704 550 -0.001001602564102564
704 551 -0.0034989316239316219
704 552 0.0033386752136752118
704 664 -0.00080128205128205115
704 665 -0.0047008547008546946
704 666 -1.0842021724855044e-18
704 667 0.0040064102564102561
704 668 -0.003311965811965808
704 669 1.0842021724855044e-19
704 703 0
704 704 0.055982905982905964
705 469 -0.00040064102564102552
705 470 -0.0066773504273504244
705 471 -0.013194444444444437
705 472 0.002003205128205128
705 473 -0.0033386752136752118
705 474 -0.0068376068376068315
705 508 -0.0016025641025641023
705 509 1.951563910473908e-18
705 510 -0.047435897435897406
705 511 0.0080128205128205121
705 512 6.5052130349130266e-19
705 513 -0.024679487179487161
705 547 -0.00040064102564102546
705 548 0.0066773504273504244
705 549 -0.013194444444444432
705 550 0.0020032051282051272
705 551 0.0033386752136752118
705 552 -0.0068376068376068307
705 664 0
705 665 -2.1684043449710089e-19
705 666 0.022008547008547007
705 667 -1.0299920638612292e-18
705 668 4.3368086899420177e-19
705 669 0.010042735042735038
705 703 2.6020852139652106e-18
705 704 -3.4694469519536142e-18
705 705 0.10940170940170937
706 469 -0.0027866809116809093
706 470 -0.001001602564102564
706 471 -0.0020032051282051276
706 472 -0.0077813390313390251
706 473 2.439454888092385e-19
706 474 7.0473141211557788e-19
706 475 -0.002786680911680911
706 476 0.0010016025641025642
706 477 0.002003205128205128
706 508 -0.0084757834757834705
706 509 3.2526065174565133e-19
706 510 -0.0080128205128205121
706 511 -0.020441595441595427
706 512 0
706 513 0
706 514 -0.008475783475783474
706 515 -5.1499603193061461e-19
706 516 0.0080128205128205121
706 547 -0.0027866809116809093
706 548 0.001001602564102564
706 549 -0.0020032051282051267
706 550 -0.0077813390313390251
706 551 -1.8973538018496328e-19
706 552 6.5052130349130266e-19
706 553 -0.0027866809116809097
706 554 -0.0010016025641025642
706 555 0.0020032051282051272
706 664 -0.00046296296296296298
706 665 -0.0040064102564102561
706 666 2.1684043449710089e-19
706 667 0.011609686609686613
706 668 -1.0842021724855044e-19
706 669 -4.3368086899420177e-19
706 670 -0.0004629629629629632
706 671 0.0040064102564102561
706 672 -7.0473141211557788e-19
706 703 0.0088319088319088225
706 704 -4.3368086899420177e-19
706 705 1.0842021724855044e-19
706 706 0.089173789173789167
707 469 -0.0010016025641025638
707 470 -0.0034989316239316206
707 471 -0.0033386752136752114
707 472 2.1684043449710089e-19
707 473 -0.013034188034188026
707 474 -0.013354700854700849
707 475 0.0010016025641025642
707 476 -0.0034989316239316219
707 477 -0.0033386752136752127
707 508 3.5236570605778894e-19
707 509 -0.0046474358974358922
707 510 8.6736173798840355e-19
707 511 2.1684043449710089e-19
707 512 -0.014743589743589728
707 513 3.903127820947816e-18
707 514 -5.1499603193061461e-19
707 515 -0.0046474358974358948
707 516 4.3368086899420177e-19
707 547 0.001001602564102564
707 548 -0.0034989316239316219
707 549 0.0033386752136752114
707 550 -1.8973538018496328e-19
707 551 -0.01303418803418803
707 552 0.013354700854700849
707 553 -0.0010016025641025642
707 554 -0.0034989316239316228
707 555 0.0033386752136752122
707 664 -0.0040064102564102561
707 665 -0.0033119658119658089
707 666 3.2526065174565133e-19
707 667 2.1684043449710089e-19
707 668 -0.0094017094017093926
707 669 3.2526065174565133e-18
707 670 0.0040064102564102561
707 671 -0.0033119658119658089
707 672 -2.1684043449710089e-19
707 703 -4.87890977618477e-19
707 704 0.024145299145299129
707 705 -3.0357660829594124e-18
707 706 1.3010426069826053e-18
707 707 0.11196581196581194
708 469 -0.002003205128205128
708 470 -0.0033386752136752122
708 471 -0.0068376068376068315
708 472 5.4210108624275222e-19
708 473 -0.013354700854700849
708 474 -0.026388888888888871
708 475 0.002003205128205128
708 476 -0.0033386752136752127
708 477 -0.0068376068376068341
708 508 -0.0080128205128205121
708 509 8.6736173798840355e-19
708 510 -0.024679487179487158
708 511 -1.0842021724855044e-19
708 512 3.0357660829594124e-18
708 513 -0.094871794871794812
708 514 0.0080128205128205121
708 515 8.6736173798840355e-19
708 516 -0.024679487179487168
708 547 -0.0020032051282051267
708 548 0.0033386752136752114
708 549 -0.0068376068376068289
708 550 6.5052130349130266e-19
708 551 0.013354700854700849
708 552 -0.026388888888888861
708 553 0.0020032051282051272
708 554 0.0033386752136752118
708 555 -0.0068376068376068307
708 664 4.3368086899420177e-19
708 665 3.2526065174565133e-19
708 666 0.010042735042735038
708 667 -1.3010426069826053e-18
708 668 2.8189256484623115e-18
708 669 0.044017094017094013
708 670 -3.2526065174565133e-19
708 671 -6.5052130349130266e-19
708 672 0.010042735042735042
708 703 7.589415207398531e-19
708 704 -3.0357660829594124e-18
708 705 0.050854700854700827
708 706 -4.3368086899420177e-18
708 707 -1.5612511283791264e-17
708 708 0.21880341880341872
709 472 -0.0027866809116809093
709 473 -0.001001602564102564
709 474 -0.002003205128205128
709 475 -0.0077813390313390251
709 476 3.2526065174565133e-19
709 477 9.2157184661267877e-19
709 478 -0.0027866809116809106
709 479 0.0010016025641025642
709 480 0.002003205128205128
709 511 -0.0084757834757834688
709 512 2.9815559743351372e-19
709 513 -0.0080128205128205104
709 514 -0.020441595441595427
709 515 0
709 516 4.3368086899420177e-19
709 517 -0.0084757834757834723
709 518 -5.4210108624275222e-19
709 519 0.0080128205128205121
709 550 -0.0027866809116809089
709 551 0.0010016025641025642
709 552 -0.0020032051282051267
709 553 -0.0077813390313390251
709 554 -2.9815559743351372e-19
709 555 4.3368086899420177e-19
709 556 -0.0027866809116809097
709 557 -0.0010016025641025642
709 558 0.0020032051282051267
709 667 -0.00046296296296296276
709 668 -0.0040064102564102552
709 669 1.0299920638612292e-18
709 670 0.011609686609686615
709 671 1.6263032587282567e-19
709 672 -4.3368086899420177e-19
709 673 -0.00046296296296296233
709 674 0.0040064102564102561
709 675 -1.3552527156068805e-18
709 706 0.0088319088319088225
709 707 -7.589415207398531e-19
709 708 3.3610267347050637e-18
709 709 0.089173789173789153
710 472 -0.001001602564102564
710 473 -0.0034989316239316206
710 474 -0.0033386752136752122
710 475 2.9815559743351372e-19
710 476 -0.013034188034188026
710 477 -0.013354700854700852
710 478 0.0010016025641025642
710 479 -0.0034989316239316215
710 480 -0.0033386752136752127
710 511 4.6078592330633938e-19
710 512 -0.0046474358974358896
710 513 5.4210108624275222e-19
710 514 0
710 515 -0.014743589743589729
710 516 8.6736173798840355e-19
710 517 -6.5052130349130266e-19
710 518 -0.0046474358974358922
710 519 8.6736173798840355e-19
710 550 0.001001602564102564
710 551 -0.0034989316239316215
710 552 0.0033386752136752109
710 553 -2.7105054312137611e-19
710 554 -0.01303418803418803
710 555 0.013354700854700852
710 556 -0.0010016025641025642
710 557 -0.0034989316239316223
710 558 0.0033386752136752127
710 667 -0.0040064102564102561
710 668 -0.0033119658119658084
710 669 2.7105054312137611e-18
710 670 1.0842021724855044e-19
710 671 -0.0094017094017093926
710 672 4.3368086899420177e-18
710 673 0.0040064102564102561
710 674 -0.003311965811965808
710 675 4.3368086899420177e-19
710 706 -3.2526065174565133e-19
710 707 0.024145299145299132
710 708 -3.4694469519536142e-18
710 709 1.3010426069826053e-18
710 710 0.11196581196581197
711 472 -0.002003205128205128
711 473 -0.0033386752136752122
711 474 -0.0068376068376068298
711 475 5.4210108624275222e-19
711 476 -0.013354700854700851
711 477 -0.026388888888888875
711 478 0.002003205128205128
711 479 -0.0033386752136752118
711 480 -0.0068376068376068324
711 511 -0.0080128205128205121
711 512 9.7578195523695399e-19
711 513 -0.024679487179487147
711 514 6.5052130349130266e-19
711 515 1.3010426069826053e-18
711 516 -0.094871794871794812
711 517 0.0080128205128205121
711 518 1.8431436932253575e-18
711 519 -0.024679487179487161
711 550 -0.0020032051282051267
711 551 0.0033386752136752114
711 552 -0.0068376068376068272
711 553 5.4210108624275222e-19
711 554 0.013354700854700849
711 555 -0.026388888888888865
711 556 0.0020032051282051272
711 557 0.0033386752136752131
711 558 -0.0068376068376068281
711 667 9.2157184661267877e-19
711 668 2.2768245622195593e-18
711 669 0.010042735042735042
711 670 -8.6736173798840355e-19
711 671 3.2526065174565133e-18
711 672 0.04401709401709402
711 673 -9.7578195523695399e-19
711 674 5.4210108624275222e-19
711 675 0.010042735042735043
711 706 2.8189256484623115e-18
711 707 -3.4694469519536142e-18
711 708 0.050854700854700827
711 709 -4.3368086899420177e-18
711 710 -6.9388939039072284e-18
711 711 0.21880341880341875
712 475 -0.0027866809116809106
712 476 -0.001001602564102564
712 477 -0.0020032051282051285
712 478 -0.0077813390313390242
712 479 2.9815559743351372e-19
712 480 4.87890977618477e-19
712 481 -0.0027866809116809097
712 482 0.001001602564102564
712 483 0.002003205128205128
712 514 -0.0084757834757834723
712 515 2.439454888092385e-19
712 516 -0.0080128205128205121
712 517 -0.020441595441595423
712 518 2.1684043449710089e-19
712 519 0
712 520 -0.0084757834757834723
712 521 -4.6078592330633938e-19
712 522 0.0080128205128205121
712 553 -0.0027866809116809102
712 554 0.0010016025641025642
712 555 -0.0020032051282051267
712 556 -0.0077813390313390234
712 557 -1.8973538018496328e-19
712 558 4.3368086899420177e-19
712 559 -0.0027866809116809089
712 560 -0.0010016025641025642
712 561 0.0020032051282051272
712 670 -0.00046296296296296211
712 671 -0.0040064102564102561
712 672 1.6263032587282567e-19
712 673 0.011609686609686613
712 674 3.7947076036992655e-19
712 675 0
712 676 -0.0004629629629629645
712 677 0.0040064102564102561
712 678 -7.589415207398531e-19
712 709 0.0088319088319088277
712 710 -9.2157184661267877e-19
712 711 5.4210108624275222e-19
712 712 0.089173789173789153
713 475 -0.001001602564102564
713 476 -0.0034989316239316223
713 477 -0.0033386752136752135
713 478 2.1684043449710089e-19
713 479 -0.013034188034188026
713 480 -0.013354700854700849
713 481 0.001001602564102564
713 482 -0.0034989316239316206
713 483 -0.0033386752136752109
713 514 1.6263032587282567e-19
713 515 -0.0046474358974358939
713 516 -3.2526065174565133e-19
713 517 2.1684043449710089e-19
713 518 -0.014743589743589726
713 519 1.951563910473908e-18
713 520 -4.87890977618477e-19
713 521 -0.0046474358974358931
713 522 3.2526065174565133e-19
713 553 0.0010016025641025642
713 554 -0.0034989316239316223
713 555 0.0033386752136752118
713 556 -1.6263032587282567e-19
713 557 -0.01303418803418803
713 558 0.013354700854700849
713 559 -0.0010016025641025642
713 560 -0.003498931623931621
713 561 0.0033386752136752105
713 670 -0.0040064102564102561
713 671 -0.0033119658119658089
713 672 -5.4210108624275222e-19
713 673 3.2526065174565133e-19
713 674 -0.0094017094017093874
713 675 2.3852447794681098e-18
713 676 0.0040064102564102561
713 677 -0.0033119658119658076
713 678 -4.3368086899420177e-19
713 709 -9.2157184661267877e-19
713 710 0.024145299145299139
713 711 -1.3010426069826053e-18
713 712 8.6736173798840355e-19
713 713 0.11196581196581194
714 475 -0.0020032051282051285
714 476 -0.0033386752136752135
714 477 -0.0068376068376068341
714 478 4.87890977618477e-19
714 479 -0.013354700854700849
714 480 -0.026388888888888865
714 481 0.0020032051282051285
714 482 -0.0033386752136752105
714 483 -0.0068376068376068315
714 514 -0.0080128205128205121
714 515 3.2526065174565133e-19
714 516 -0.024679487179487168
714 517 0
714 518 2.1684043449710089e-18
714 519 -0.094871794871794798
714 520 0.0080128205128205121
714 521 5.4210108624275222e-19
714 522 -0.024679487179487154
714 553 -0.0020032051282051267
714 554 0.0033386752136752122
714 555 -0.0068376068376068307
714 556 6.5052130349130266e-19
714 557 0.013354700854700849
714 558 -0.026388888888888858
714 559 0.0020032051282051272
714 560 0.0033386752136752109
714 561 -0.0068376068376068272
714 670 2.1684043449710089e-19
714 671 -4.3368086899420177e-19
714 672 0.010042735042735042
714 673 0
714 674 2.1684043449710089e-18
714 675 0.044017094017094013
714 676 -4.87890977618477e-19
714 677 -9.7578195523695399e-19
714 678 0.010042735042735038
714 709 -1.0842021724855044e-19
714 710 -1.3010426069826053e-18
714 711 0.050854700854700841
714 712 -3.4694469519536142e-18
714 713 -7.8062556418956319e-18
714 714 0.21880341880341875
715 478 -0.0027866809116809089
715 479 -0.001001602564102564
715 480 -0.002003205128205128
715 481 -0.0077813390313390251
715 482 2.7105054312137611e-19
715 483 8.6736173798840355e-19
715 484 -0.0027866809116809106
715 485 0.0010016025641025642
715 486 0.002003205128205128
715 517 -0.0084757834757834688
715 518 3.7947076036992655e-19
715 519 -0.0080128205128205104
715 520 -0.02044159544159543
715 521 2.1684043449710089e-19
715 522 1.0842021724855044e-18
715 523 -0.0084757834757834723
715 524 -6.5052130349130266e-19
715 525 0.0080128205128205121
715 556 -0.002786680911680908
715 557 0.0010016025641025642
715 558 -0.0020032051282051263
715 559 -0.0077813390313390251
715 560 -2.1684043449710089e-19
715 561 8.1315162936412833e-19
715 562 -0.0027866809116809102
715 563 -0.0010016025641025642
715 564 0.0020032051282051267
715 673 -0.00046296296296296406
715 674 -0.0040064102564102552
715 675 7.0473141211557788e-19
715 676 0.011609686609686615
715 677 2.7105054312137611e-19
715 678 0
715 679 -0.00046296296296296087
715 680 0.0040064102564102561
715 681 -1.7347234759768071e-18
715 712 0.0088319088319088156
715 713 -7.0473141211557788e-19
715 714 1.0842021724855044e-18
715 715 0.089173789173789167
716 478 -0.001001602564102564
716 479 -0.0034989316239316202
716 480 -0.0033386752136752109
716 481 1.8973538018496328e-19
716 482 -0.013034188034188026
716 483 -0.013354700854700849
716 484 0.0010016025641025642
716 485 -0.0034989316239316223
716 486 -0.0033386752136752131
716 517 4.3368086899420177e-19
716 518 -0.0046474358974358905
716 519 6.5052130349130266e-19
716 520 0
716 521 -0.014743589743589729
716 522 8.6736173798840355e-19
716 523 -5.6920614055488983e-19
716 524 -0.0046474358974358931
716 525 6.5052130349130266e-19
716 556 0.0010016025641025642
716 557 -0.003498931623931621
716 558 0.0033386752136752109
716 559 -2.1684043449710089e-19
716 560 -0.013034188034188031
716 561 0.013354700854700852
716 562 -0.0010016025641025642
716 563 -0.0034989316239316241
716 564 0.003338675213675214
716 673 -0.0040064102564102552
716 674 -0.003311965811965808
716 675 4.3368086899420177e-19
716 676 -5.4210108624275222e-20
716 677 -0.0094017094017093926
716 678 3.2526065174565133e-18
716 679 0.0040064102564102561
716 680 -0.003311965811965808
716 681 5.4210108624275222e-19
716 712 -5.9631119486702744e-19
716 713 0.024145299145299122
716 714 -1.3010426069826053e-18
716 715 8.6736173798840355e-19
716 716 0.11196581196581196
717 478 -0.002003205128205128
717 479 -0.0033386752136752109
717 480 -0.0068376068376068281
717 481 5.9631119486702744e-19
717 482 -0.013354700854700849
717 483 -0.026388888888888871
717 484 0.0020032051282051285
717 485 -0.0033386752136752135
717 486 -0.0068376068376068341
717 517 -0.0080128205128205121
717 518 5.4210108624275222e-19
717 519 -0.024679487179487147
717 520 0
717 521 8.6736173798840355e-19
717 522 -0.094871794871794826
717 523 0.0080128205128205121
717 524 1.8431436932253575e-18
717 525 -0.024679487179487168
717 556 -0.0020032051282051267
717 557 0.0033386752136752109
717 558 -0.0068376068376068263
717 559 8.6736173798840355e-19
717 560 0.013354700854700852
717 561 -0.026388888888888865
717 562 0.0020032051282051267
717 563 0.003338675213675214
717 564 -0.0068376068376068315
717 673 9.7578195523695399e-19
717 674 7.589415207398531e-19
717 675 0.010042735042735037
717 676 -4.3368086899420177e-19
717 677 3.4694469519536142e-18
717 678 0.044017094017094027
717 679 -1.3552527156068805e-18
717 680 2.1684043449710089e-19
717 681 0.010042735042735047
717 712 1.951563910473908e-18
717 713 -2.1684043449710089e-18
717 714 0.050854700854700813
717 715 -2.6020852139652106e-18
717 716 -1.5612511283791264e-17
717 717 0.21880341880341875
718 481 -0.0027866809116809115
718 482 -0.001001602564102564
718 483 -0.002003205128205128
718 484 -0.0077813390313390268
718 485 1.8973538018496328e-19
718 486 8.1315162936412833e-19
718 487 -0.0027866809116809106
718 488 0.001001602564102564
718 489 0.0020032051282051276
718 520 -0.0084757834757834757
718 521 1.3552527156068805e-19
718 522 -0.0080128205128205121
718 523 -0.02044159544159543
718 524 -4.3368086899420177e-19
718 525 4.3368086899420177e-19
718 526 -0.0084757834757834705
718 527 -1.0842021724855044e-19
718 528 0.0080128205128205121
718 559 -0.0027866809116809106
718 560 0.0010016025641025642
718 561 -0.0020032051282051263
718 562 -0.007781339031339026
718 563 -2.1684043449710089e-19
718 564 5.9631119486702744e-19
718 565 -0.0027866809116809089
718 566 -0.0010016025641025642
718 567 0.0020032051282051267
718 676 -0.00046296296296296103
718 677 -0.0040064102564102552
718 678 3.2526065174565133e-19
718 679 0.011609686609686611
718 680 5.4210108624275222e-20
718 681 8.6736173798840355e-19
718 682 -0.00046296296296296444
718 683 0.0040064102564102561
718 684 -1.0842021724855044e-18
718 715 0.0088319088319088399
718 716 -1.1384122811097797e-18
718 717 -9.7578195523695399e-19
718 718 0.089173789173789167
719 481 -0.0010016025641025642
719 482 -0.0034989316239316241
719 483 -0.0033386752136752144
719 484 2.439454888092385e-19
719 485 -0.013034188034188026
719 486 -0.013354700854700851
719 487 0.0010016025641025642
719 488 -0.003498931623931621
719 489 -0.0033386752136752122
719 520 1.8973538018496328e-19
719 521 -0.0046474358974358965
719 522 -8.6736173798840355e-19
719 523 -2.1684043449710089e-19
719 524 -0.014743589743589733
719 525 -8.6736173798840355e-19
719 526 -8.1315162936412833e-20
719 527 -0.0046474358974358913
719 528 -2.1684043449710089e-19
719 559 0.001001602564102564
719 560 -0.0034989316239316236
719 561 0.0033386752136752144
719 562 -3.2526065174565133e-19
719 563 -0.013034188034188031
719 564 0.013354700854700856
719 565 -0.001001602564102564
719 566 -0.0034989316239316206
719 567 0.0033386752136752105
719 676 -0.0040064102564102561
719 677 -0.0033119658119658106
719 678 -1.4094628242311558e-18
719 679 -2.1684043449710089e-19
719 680 -0.0094017094017093926
719 681 5.2041704279304213e-18
719 682 0.0040064102564102561
719 683 -0.0033119658119658106
719 684 -1.0842021724855044e-18
719 715 -1.0842021724855044e-18
719 716 0.02414529914529915
719 717 4.3368086899420177e-19
719 718 8.6736173798840355e-19
719 719 0.11196581196581196
720 481 -0.0020032051282051285
720 482 -0.0033386752136752144
720 483 -0.0068376068376068367
720 484 5.9631119486702744e-19
720 485 -0.013354700854700851
720 486 -0.026388888888888878
720 487 0.002003205128205128
720 488 -0.0033386752136752122
720 489 -0.0068376068376068307
720 520 -0.0080128205128205121
720 521 1.0842021724855044e-19
720 522 -0.024679487179487179
720 523 0
720 524 1.7347234759768071e-18
720 525 -0.09487179487179484
720 526 0.0080128205128205121
720 527 -2.1684043449710089e-19
720 528 -0.024679487179487154
720 559 -0.0020032051282051272
720 560 0.0033386752136752144
720 561 -0.0068376068376068333
720 562 7.589415207398531e-19
720 563 0.013354700854700852
720 564 -0.026388888888888865
720 565 0.0020032051282051272
720 566 0.0033386752136752105
720 567 -0.0068376068376068263
720 676 0
720 677 -1.8431436932253575e-18
720 678 0.010042735042735047
720 679 -4.3368086899420177e-19
720 680 4.9873299934333204e-18
720 681 0.04401709401709402
720 682 -1.0842021724855044e-18
720 683 -5.4210108624275222e-19
720 684 0.010042735042735038
720 715 -7.589415207398531e-19
720 716 -8.6736173798840355e-19
720 717 0.050854700854700861
720 718 -2.6020852139652106e-18
720 719 -1.9949319973733282e-17
720 720 0.2188034188034188
721 484 -0.0027866809116809097
721 485 -0.0010016025641025638
721 486 -0.002003205128205128
721 487 -0.0077813390313390268
721 488 2.439454888092385e-19
721 489 4.3368086899420177e-19
721 490 -0.0027866809116809119
721 491 0.001001602564102564
721 492 0.0020032051282051285
721 523 -0.0084757834757834688
721 524 6.7762635780344027e-19
721 525 -0.0080128205128205121
721 526 -0.02044159544159543
721 527 2.1684043449710089e-19
721 528 2.1684043449710089e-19
721 529 -0.0084757834757834792
721 530 -8.1315162936412833e-19
721 531 0.0080128205128205121
721 562 -0.0027866809116809093
721 563 0.0010016025641025642
721 564 -0.0020032051282051267
721 565 -0.0077813390313390268
721 566 -2.9815559743351372e-19
721 567 5.4210108624275222e-19
721 568 -0.0027866809116809119
721 569 -0.0010016025641025642
721 570 0.0020032051282051272
721 679 -0.00046296296296296276
721 680 -0.0040064102564102552
721 681 4.3368086899420177e-19
721 682 0.011609686609686611
721 683 2.7105054312137611e-19
721 684 -4.3368086899420177e-19
721 685 -0.00046296296296296005
721 686 0.0040064102564102561
721 687 0
721 718 0.0088319088319088173
721 719 1.0842021724855044e-18
721 720 -3.2526065174565133e-19
721 721 0.089173789173789167
722 484 -0.0010016025641025638
722 485 -0.0034989316239316202
722 486 -0.0033386752136752109
722 487 2.439454888092385e-19
722 488 -0.01303418803418803
722 489 -0.013354700854700852
722 490 0.0010016025641025638
722 491 -0.0034989316239316232
722 492 -0.0033386752136752135
722 523 7.3183646642771549e-19
722 524 -0.0046474358974358913
722 525 2.4936649967166602e-18
722 526 2.1684043449710089e-19
722 527 -0.014743589743589729
722 528 4.3368086899420177e-18
722 529 -8.4025668367626594e-19
722 530 -0.0046474358974358991
722 531 3.0357660829594124e-18
722 562 0.0010016025641025642
722 563 -0.0034989316239316219
722 564 0.0033386752136752114
722 565 -2.9815559743351372e-19
722 566 -0.013034188034188033
722 567 0.013354700854700852
722 568 -0.0010016025641025644
722 569 -0.0034989316239316258
722 570 0.0033386752136752148
722 679 -0.0040064102564102552
722 680 -0.0033119658119658054
722 681 -7.589415207398531e-19
722 682 5.4210108624275222e-20
722 683 -0.0094017094017093961
722 684 2.8189256484623115e-18
722 685 0.0040064102564102552
722 686 -0.0033119658119658063
722 687 -1.3010426069826053e-18
722 718 7.0473141211557788e-19
722 719 0.024145299145299129
722 720 -4.3368086899420177e-19
722 721 8.6736173798840355e-19
722 722 0.11196581196581196
723 484 -0.002003205128205128
723 485 -0.0033386752136752118
723 486 -0.0068376068376068307
723 487 4.3368086899420177e-19
723 488 -0.013354700854700852
723 489 -0.026388888888888878
723 490 0.0020032051282051285
723 491 -0.0033386752136752135
723 492 -0.0068376068376068376
723 523 -0.0080128205128205121
723 524 3.2526065174565133e-18
723 525 -0.024679487179487154
723 526 2.1684043449710089e-19
723 527 4.5536491244391186e-18
723 528 -0.094871794871794826
723 529 0.0080128205128205121
723 530 2.4936649967166602e-18
723 531 -0.024679487179487182
723 562 -0.0020032051282051267
723 563 0.0033386752136752118
723 564 -0.0068376068376068281
723 565 4.87890977618477e-19
723 566 0.013354700854700852
723 567 -0.026388888888888865
723 568 0.0020032051282051276
723 569 0.0033386752136752153
723 570 -0.0068376068376068359
723 679 5.4210108624275222e-19
723 680 -1.5178830414797062e-18
723 681 0.010042735042735038
723 682 -1.3010426069826053e-18
723 683 1.951563910473908e-18
723 684 0.044017094017094027
723 685 1.0842021724855044e-19
723 686 -1.6263032587282567e-18
723 687 0.010042735042735047
723 718 1.5178830414797062e-18
723 719 4.3368086899420177e-19
723 720 0.05085470085470082
723 721 -6.9388939039072284e-18
723 722 -1.0408340855860843e-17
723 723 0.2188034188034188
724 487 -0.0027866809116809097
724 488 -0.001001602564102564
724 489 -0.002003205128205128
724 490 -0.0077813390313390208
724 491 1.6263032587282567e-19
724 492 7.0473141211557788e-19
724 493 -0.0027866809116809076
724 494 0.0010016025641025642
724 495 0.0020032051282051276
724 526 -0.0084757834757834688
724 527 -1.0842021724855044e-19
724 528 -0.0080128205128205086
724 529 -0.020441595441595416
724 530 -4.3368086899420177e-19
724 531 9.7578195523695399e-19
724 532 -0.0084757834757834619
724 533 6.2341624917916505e-19
724 534 0.0080128205128205104
724 565 -0.0027866809116809089
724 566 0.0010016025641025638
724 567 -0.0020032051282051267
724 568 -0.0077813390313390208
724 569 -3.7947076036992655e-19
724 570 5.9631119486702744e-19
724 571 -0.0027866809116809058
724 572 -0.001001602564102564
724 573 0.0020032051282051267
724 682 -0.0004629629629629613
724 683 -0.0040064102564102561
724 684 1.463672932855431e-18
724 685 0.011609686609686613
724 686 -2.7105054312137611e-19
724 687 -4.3368086899420177e-19
724 688 -0.00046296296296296932
724 689 0.0040064102564102569
724 690 -1.8431436932253575e-18
724 721 0.0088319088319088399
724 722 -2.0057740190981832e-18
724 723 3.3610267347050637e-18
724 724 0.089173789173789139
725 487 -0.001001602564102564
725 488 -0.0034989316239316232
725 489 -0.0033386752136752135
725 490 8.1315162936412833e-20
725 491 -0.013034188034188021
725 492 -0.013354700854700845
725 493 0.001001602564102564
725 494 -0.0034989316239316176
725 495 -0.0033386752136752079
725 526 -8.1315162936412833e-20
725 527 -0.0046474358974358913
725 528 -9.7578195523695399e-19
725 529 -6.5052130349130266e-19
725 530 -0.014743589743589722
725 531 6.5052130349130266e-19
725 532 5.9631119486702744e-19
725 533 -0.0046474358974358844
725 534 -4.5536491244391186e-18
725 565 0.001001602564102564
725 566 -0.0034989316239316223
725 567 0.0033386752136752127
725 568 -3.2526065174565133e-19
725 569 -0.013034188034188024
725 570 0.013354700854700845
725 571 -0.001001602564102564
725 572 -0.0034989316239316154
725 573 0.0033386752136752062
725 682 -0.0040064102564102561
725 683 -0.0033119658119658119
725 684 3.4694469519536142e-18
725 685 -4.87890977618477e-19
725 686 -0.0094017094017093822
725 687 0
725 688 0.0040064102564102561
725 689 -0.0033119658119658123
725 690 4.4452289071905682e-18
725 721 -2.0057740190981832e-18
725 722 0.02414529914529915
725 723 -4.7704895589362195e-18
725 724 -1.3010426069826053e-18
725 725 0.11196581196581191
726 487 -0.002003205128205128
726 488 -0.0033386752136752135
726 489 -0.0068376068376068324
726 490 6.5052130349130266e-19
726 491 -0.013354700854700844
726 492 -0.026388888888888858
726 493 0.0020032051282051272
726 494 -0.0033386752136752075
726 495 -0.006837606837606822
726 526 -0.0080128205128205121
726 527 -1.3010426069826053e-18
726 528 -0.024679487179487161
726 529 6.5052130349130266e-19
726 530 1.5178830414797062e-18
726 531 -0.094871794871794785
726 532 0.0080128205128205104
726 533 -4.0115480381963664e-18
726 534 -0.024679487179487127
726 565 -0.0020032051282051267
726 566 0.0033386752136752127
726 567 -0.0068376068376068281
726 568 7.0473141211557788e-19
726 569 0.013354700854700844
726 570 -0.026388888888888851
726 571 0.0020032051282051267
726 572 0.0033386752136752075
726 573 -0.0068376068376068185
726 682 1.4094628242311558e-18
726 683 3.1441863002079629e-18
726 684 0.010042735042735045
726 685 -4.3368086899420177e-19
726 686 3.4694469519536142e-18
726 687 0.044017094017093993
726 688 -1.5178830414797062e-18
726 689 4.2283884726934673e-18
726 690 0.010042735042735024
726 721 4.4452289071905682e-18
726 722 -4.7704895589362195e-18
726 723 0.050854700854700861
726 724 -6.0715321659188248e-18
726 725 -8.6736173798840355e-18
726 726 0.21880341880341866
727 490 -0.002786680911680908
727 491 -0.0010016025641025638
727 492 -0.002003205128205128
727 493 -0.0077813390313390216
727 494 -8.1315162936412833e-20
727 495 3.7947076036992655e-19
727 496 -0.0027866809116809136
727 497 0.0010016025641025644
727 498 0.0020032051282051285
727 529 -0.0084757834757834688
727 530 1.3281476612947429e-18
727 531 -0.0080128205128205121
727 532 -0.020441595441595409
727 533 -2.1684043449710089e-18
727 534 -1.3010426069826053e-18
727 535 -0.0084757834757834827
727 536 3.2526065174565133e-19
727 537 0.0080128205128205156
727 568 -0.0027866809116809084
727 569 0.0010016025641025642
727 570 -0.0020032051282051267
727 571 -0.0077813390313390208
727 572 -5.6920614055488983e-19
727 573 2.7105054312137611e-19
727 574 -0.0027866809116809119
727 575 -0.001001602564102564
727 576 0.0020032051282051276
727 685 -0.00046296296296296531
727 686 -0.0040064102564102543
727 687 -3.7947076036992655e-19
727 688 0.011609686609686613
727 689 -1.951563910473908e-18
727 690 -1.3010426069826053e-18
727 691 -0.0004629629629629632
727 692 0.0040064102564102569
727 693 1.3010426069826053e-18
727 724 0.0088319088319087913
727 725 3.3068166260807885e-18
727 726 -3.1441863002079629e-18
727 727 0.089173789173789125
728 490 -0.0010016025641025638
728 491 -0.0034989316239316167
728 492 -0.0033386752136752062
728 493 -2.439454888092385e-19
728 494 -0.013034188034188019
728 495 -0.013354700854700845
728 496 0.0010016025641025642
728 497 -0.0034989316239316262
728 498 -0.0033386752136752161
728 529 1.3281476612947429e-18
728 530 -0.0046474358974358913
728 531 4.3368086899420177e-18
728 532 -1.7347234759768071e-18
728 533 -0.014743589743589717
728 534 4.9873299934333204e-18
728 535 3.2526065174565133e-19
728 536 -0.0046474358974359017
728 537 -1.4094628242311558e-18
728 568 0.0010016025641025644
728 569 -0.0034989316239316206
728 570 0.0033386752136752101
728 571 -6.5052130349130266e-19
728 572 -0.013034188034188023
728 573 0.013354700854700842
728 574 -0.001001602564102564
728 575 -0.0034989316239316245
728 576 0.0033386752136752135
728 685 -0.0040064102564102543
728 686 -0.0033119658119657993
728 687 1.0842021724855044e-18
728 688 -1.8973538018496328e-18
728 689 -0.0094017094017093857
728 690 -1.951563910473908e-18
728 691 0.0040064102564102561
728 692 -0.0033119658119658141
728 693 -9.2157184661267877e-18
728 724 3.2526065174565133e-18
728 725 0.024145299145299098
728 726 -9.540979117872439e-18
728 727 -5.6378512969246231e-18
728 728 0.1119658119658119
729 490 -0.002003205128205128
729 491 -0.0033386752136752066
729 492 -0.0068376068376068255
729 493 0
729 494 -0.013354700854700845
729 495 -0.026388888888888858
729 496 0.0020032051282051289
729 497 -0.0033386752136752157
729 498 -0.0068376068376068428
729 529 -0.0080128205128205121
729 530 5.2041704279304213e-18
729 531 -0.02467948717948714
729 532 -1.6263032587282567e-18
729 533 4.1199682554449168e-18
729 534 -0.094871794871794757
729 535 0.0080128205128205121
729 536 -1.0842021724855044e-18
729 537 -0.024679487179487199
729 568 -0.0020032051282051267
729 569 0.0033386752136752101
729 570 -0.0068376068376068246
729 571 3.7947076036992655e-19
729 572 0.013354700854700842
729 573 -0.026388888888888844
729 574 0.0020032051282051276
729 575 0.0033386752136752127
729 576 -0.0068376068376068402
729 685 -4.3368086899420177e-19
729 686 -6.5052130349130266e-19
729 687 0.010042735042735028
729 688 -2.1684043449710089e-18
729 689 -4.3368086899420177e-18
729 690 0.044017094017093999
729 691 1.6805133673525319e-18
729 692 -9.6493993351209895e-18
729 693 0.010042735042735045
729 724 -2.4936649967166602e-18
729 725 -5.2041704279304213e-18
729 726 0.050854700854700764
729 727 -7.8062556418956319e-18
729 728 1.7347234759768071e-18
729 729 0.21880341880341864
730 493 -0.002786680911680908
730 494 -0.0010016025641025638
730 495 -0.0020032051282051276
730 496 -0.0077813390313390303
730 497 3.2526065174565133e-19
730 498 9.7578195523695399e-19
730 499 -0.0027866809116809093
730 500 0.001001602564102564
730 501 0.0020032051282051276
730 532 -0.0084757834757834619
730 533 1.0299920638612292e-18
730 534 -0.0080128205128205086
730 535 -0.020441595441595441
730 536 4.3368086899420177e-19
730 537 6.5052130349130266e-19
730 538 -0.0084757834757834653
730 539 -1.3281476612947429e-18
730 540 0.0080128205128205104
730 571 -0.002786680911680908
730 572 0.0010016025641025644
730 573 -0.0020032051282051259
730 574 -0.0077813390313390303
730 575 -2.7105054312137611e-19
730 576 5.9631119486702744e-19
730 577 -0.0027866809116809097
730 578 -0.0010016025641025644
730 579 0.0020032051282051267
730 688 -0.00046296296296295951
730 689 -0.0040064102564102543
730 690 2.8731357570865868e-18
730 691 0.011609686609686616
730 692 3.7947076036992655e-19
730 693 -8.6736173798840355e-19
730 694 -0.00046296296296295854
730 695 0.0040064102564102561
730 696 -2.8189256484623115e-18
730 727 0.0088319088319088329
730 728 2.4936649967166602e-18
730 729 9.2157184661267877e-18
730 730 0.089173789173789195
731 493 -0.0010016025641025638
731 494 -0.0034989316239316189
731 495 -0.0033386752136752114
731 496 2.7105054312137611e-19
731 497 -0.013034188034188033
731 498 -0.013354700854700854
731 499 0.001001602564102564
731 500 -0.0034989316239316206
731 501 -0.0033386752136752118
731 532 1.0842021724855044e-18
731 533 -0.0046474358974358835
731 534 6.9388939039072284e-18
731 535 6.5052130349130266e-19
731 536 -0.014743589743589738
731 537 -2.6020852139652106e-18
731 538 -1.2739375526704677e-18
731 539 -0.0046474358974358879
731 540 4.3368086899420177e-18
731 571 0.0010016025641025644
731 572 -0.0034989316239316223
731 573 0.0033386752136752127
731 574 -2.439454888092385e-19
731 575 -0.013034188034188036
731 576 0.013354700854700863
731 577 -0.0010016025641025644
731 578 -0.0034989316239316241
731 579 0.0033386752136752144
731 688 -0.0040064102564102543
731 689 -0.0033119658119658028
731 690 1.6263032587282567e-18
731 691 1.0842021724855044e-19
731 692 -0.0094017094017093926
731 693 1.1709383462843448e-17
731 694 0.0040064102564102552
731 695 -0.0033119658119658037
731 696 5.9631119486702744e-18
731 727 2.3852447794681098e-18
731 728 0.024145299145299143
731 729 4.7704895589362195e-18
731 730 8.6736173798840355e-19
731 731 0.111965811965812
732 493 -0.0020032051282051276
732 494 -0.0033386752136752109
732 495 -0.0068376068376068255
732 496 6.5052130349130266e-19
732 497 -0.013354700854700854
732 498 -0.026388888888888882
732 499 0.0020032051282051276
732 500 -0.0033386752136752118
732 501 -0.0068376068376068307
732 532 -0.0080128205128205086
732 533 5.7462715141731735e-18
732 534 -0.024679487179487133
732 535 -2.1684043449710089e-19
732 536 -2.6020852139652106e-18
732 537 -0.094871794871794868
732 538 0.0080128205128205086
732 539 4.0115480381963664e-18
732 540 -0.024679487179487154
732 571 -0.0020032051282051263
732 572 0.0033386752136752118
732 573 -0.0068376068376068237
732 574 4.87890977618477e-19
732 575 0.013354700854700861
732 576 -0.026388888888888878
732 577 0.0020032051282051267
732 578 0.0033386752136752148
732 579 -0.0068376068376068289
732 688 2.927345865710862e-18
732 689 4.1199682554449168e-18
732 690 0.010042735042735045
732 691 -1.3010426069826053e-18
732 692 1.4094628242311558e-17
732 693 0.044017094017094041
732 694 -2.4936649967166602e-18
732 695 8.565197162635485e-18
732 696 0.010042735042735052
732 727 1.0516761073109393e-17
732 728 1.7347234759768071e-18
732 729 0.050854700854700848
732 730 -6.0715321659188248e-18
732 731 -3.4694469519536142e-17
732 732 0.21880341880341886
733 496 -0.0027866809116809136
733 497 -0.0010016025641025644
733 498 -0.0020032051282051285
733 499 -0.0077813390313390242
733 500 5.6920614055488983e-19
733 501 1.463672932855431e-18
733 502 -0.0027866809116809084
733 503 0.0010016025641025642
733 504 0.002003205128205128
733 535 -0.0084757834757834792
733 536 -7.3183646642771549e-19
733 537 -0.0080128205128205121
733 538 -0.02044159544159542
733 539 1.0842021724855044e-18
733 540 3.6862873864507151e-18
733 541 -0.0084757834757834653
733 542 -3.7947076036992655e-19
733 543 0.0080128205128205121
733 574 -0.0027866809116809119
733 575 0.0010016025641025638
733 576 -0.0020032051282051272
733 577 -0.0077813390313390234
733 578 5.4210108624275222e-20
733 579 1.3552527156068805e-18
733 580 -0.002786680911680908
733 581 -0.0010016025641025644
733 582 0.0020032051282051272
733 691 -0.00046296296296296125
733 692 -0.0040064102564102561
733 693 -1.1926223897340549e-18
733 694 0.011609686609686613
733 695 1.0842021724855044e-18
733 696 2.1684043449710089e-18
733 697 -0.00046296296296296678
733 698 0.0040064102564102561
733 699 -1.5178830414797062e-18
733 730 0.0088319088319088433
733 731 -3.6320772778264399e-18
733 732 -7.0473141211557788e-18
733 733 0.089173789173789167
734 496 -0.0010016025641025642
734 497 -0.0034989316239316267
734 498 -0.0033386752136752157
734 499 4.6078592330633938e-19
734 500 -0.013034188034188024
734 501 -0.013354700854700851
734 502 0.001001602564102564
734 503 -0.0034989316239316184
734 504 -0.0033386752136752088
734 535 -5.9631119486702744e-19
734 536 -0.0046474358974359017
734 537 -5.4210108624275222e-18
734 538 8.6736173798840355e-19
734 539 -0.014743589743589724
734 540 7.3725747729014302e-18
734 541 -4.3368086899420177e-19
734 542 -0.0046474358974358879
734 543 9.7578195523695399e-19
734 574 0.001001602564102564
734 575 -0.0034989316239316241
734 576 0.0033386752136752148
734 577 0
734 578 -0.01303418803418803
734 579 0.013354700854700847
734 580 -0.0010016025641025644
734 581 -0.0034989316239316189
734 582 0.0033386752136752096
734 691 -0.0040064102564102561
734 692 -0.0033119658119658149
734 693 -6.5052130349130266e-19
734 694 1.1384122811097797e-18
734 695 -0.0094017094017093874
734 696 -7.3725747729014302e-18
734 697 0.0040064102564102561
734 698 -0.0033119658119658063
734 699 1.3010426069826053e-18
734 730 -3.8489177123235407e-18
734 731 0.024145299145299157
734 732 -9.540979117872439e-18
734 733 4.7704895589362195e-18
734 734 0.11196581196581194
735 496 -0.0020032051282051285
735 497 -0.0033386752136752166
735 498 -0.0068376068376068428
735 499 1.2468324983583301e-18
735 500 -0.013354700854700852
735 501 -0.026388888888888865
735 502 0.0020032051282051276
735 503 -0.0033386752136752096
735 504 -0.0068376068376068255
735 535 -0.0080128205128205121
735 536 -3.4694469519536142e-18
735 537 -0.024679487179487203
735 538 3.2526065174565133e-18
735 539 9.9746599868666408e-18
735 540 -0.094871794871794785
735 541 0.0080128205128205104
735 542 2.3852447794681098e-18
735 543 -0.024679487179487133
735 574 -0.0020032051282051272
735 575 0.0033386752136752148
735 576 -0.0068376068376068393
735 577 1.1926223897340549e-18
735 578 0.013354700854700847
735 579 -0.026388888888888858
735 580 0.0020032051282051272
735 581 0.0033386752136752088
735 582 -0.0068376068376068237
735 691 -1.4094628242311558e-18
735 692 -2.1684043449710089e-18
735 693 0.010042735042735049
735 694 1.7347234759768071e-18
735 695 -8.8904578143811364e-18
735 696 0.044017094017094013
735 697 -1.1926223897340549e-18
735 698 -1.8431436932253575e-18
735 699 0.010042735042735031
735 730 -6.3967928176644762e-18
735 731 -5.2041704279304213e-18
735 732 0.050854700854700868
735 733 6.0715321659188248e-18
735 734 1.7347234759768071e-17
735 735 0.21880341880341875
736 499 -0.0027866809116809093
736 500 -0.001001602564102564
736 501 -0.002003205128205128
736 502 -0.0077813390313390251
736 503 5.4210108624275222e-19
736 504 1.6263032587282567e-18
736 505 -0.0027866809116809084
736 506 0.001001602564102564
736 507 0.0020032051282051276
736 538 -0.0084757834757834688
736 539 1.6263032587282567e-19
736 540 -0.0080128205128205121
736 541 -0.020441595441595427
736 542 1.3010426069826053e-18
736 543 3.5778671692021646e-18
736 544 -0.0084757834757834636
736 545 -1.3823577699190182e-18
736 546 0.0080128205128205104
736 577 -0.0027866809116809089
736 578 0.0010016025641025644
736 579 -0.0020032051282051272
736 580 -0.0077813390313390242
736 581 -2.7105054312137611e-20
736 582 1.5720931501039814e-18
736 583 -0.0027866809116809089
736 584 -0.0010016025641025647
736 585 0.0020032051282051263
736 694 -0.0004629629629629664
736 695 -0.0040064102564102552
736 696 -1.0842021724855044e-19
736 697 0.011609686609686613
736 698 5.9631119486702744e-19
736 699 3.0357660829594124e-18
736 700 -0.00046296296296295734
736 701 0.0040064102564102561
736 702 -3.903127820947816e-18
736 733 0.0088319088319088017
736 734 -4.87890977618477e-19
736 735 -1.951563910473908e-18
736 736 0.089173789173789153
737 499 -0.0010016025641025638
737 500 -0.0034989316239316193
737 501 -0.0033386752136752101
737 502 4.6078592330633938e-19
737 503 -0.013034188034188026
737 504 -0.013354700854700849
737 505 0.0010016025641025638
737 506 -0.0034989316239316197
737 507 -0.0033386752136752122
737 538 3.5236570605778894e-19
737 539 -0.0046474358974358913
737 540 2.2768245622195593e-18
737 541 1.0842021724855044e-18
737 542 -0.014743589743589729
737 543 2.1684043449710089e-18
737 544 -1.3010426069826053e-18
737 545 -0.0046474358974358844
737 546 5.9631119486702744e-18
737 577 0.0010016025641025644
737 578 -0.0034989316239316202
737 579 0.0033386752136752088
737 580 0
737 581 -0.01303418803418803
737 582 0.013354700854700856
737 583 -0.0010016025641025644
737 584 -0.0034989316239316236
737 585 0.0033386752136752144
737 694 -0.0040064102564102561
737 695 -0.0033119658119658071
737 696 -3.0357660829594124e-18
737 697 5.9631119486702744e-19
737 698 -0.0094017094017093891
737 699 8.0230960763927328e-18
737 700 0.0040064102564102543
737 701 -0.0033119658119658028
737 702 8.7820375971325859e-18
737 733 -4.87890977618477e-19
737 734 0.024145299145299108
737 735 2.6020852139652106e-18
737 736 4.7704895589362195e-18
737 737 0.11196581196581194
738 499 -0.002003205128205128
738 500 -0.0033386752136752096
738 501 -0.0068376068376068281
738 502 1.3552527156068805e-18
738 503 -0.013354700854700849
738 504 -0.026388888888888871
738 505 0.0020032051282051276
738 506 -0.0033386752136752122
738 507 -0.0068376068376068281
738 538 -0.0080128205128205121
738 539 6.5052130349130266e-19
738 540 -0.024679487179487147
738 541 3.1441863002079629e-18
738 542 1.7347234759768071e-18
738 543 -0.094871794871794812
738 544 0.0080128205128205086
738 545 5.0957502106818708e-18
738 546 -0.024679487179487144
738 577 -0.0020032051282051272
738 578 0.0033386752136752101
738 579 -0.0068376068376068272
738 580 1.463672932855431e-18
738 581 0.013354700854700852
738 582 -0.026388888888888865
738 583 0.0020032051282051267
738 584 0.003338675213675214
738 585 -0.0068376068376068272
738 694 -5.4210108624275222e-20
738 695 -1.7347234759768071e-18
738 696 0.010042735042735031
738 697 2.6020852139652106e-18
738 698 1.0625181290357943e-17
738 699 0.04401709401709402
738 700 -3.7947076036992655e-18
738 701 8.6736173798840355e-18
738 702 0.010042735042735052
738 733 -1.4094628242311558e-18
738 734 -2.6020852139652106e-18
738 735 0.050854700854700785
738 736 9.540979117872439e-18
738 737 -3.2959746043559335e-17
738 738 0.21880341880341878
739 502 -0.0027866809116809149
739 503 -0.0010016025641025644
739 504 -0.0020032051282051289
739 505 -0.003890669515669516
739 506 -0.00020032051282051249
739 507 -0.00040064102564102449
739 541 -0.0084757834757834861
739 542 -7.3183646642771549e-19
739 543 -0.0080128205128205138
739 544 -0.010220797720797726
739 545 8.6736173798840355e-19
739 546 -0.0016025641025640995
739 580 -0.0027866809116809128
739 581 0.0010016025641025638
739 582 -0.0020032051282051276
739 583 -0.0038906695156695169
739 584 0.00020032051282051292
739 585 -0.00040064102564102411
739 697 -0.0004629629629629607
739 698 -0.0040064102564102561
739 699 -2.5478751053409354e-18
739 700 0.0058048433048433082
739 701 -0.00080128205128205039
739 702 3.0357660829594124e-18
739 736 0.0088319088319088485
739 737 -4.0115480381963664e-18
739 738 -1.0733601507606494e-17
739 739 0.044586894586894604
740 502 -0.0010016025641025642
740 503 -0.003498931623931628
740 504 -0.0033386752136752183
740 505 0.00020032051282051317
740 506 -0.0065170940170940174
740 507 -0.0066773504273504314
740 541 -7.3183646642771549e-19
740 542 -0.0046474358974359069
740 543 -3.903127820947816e-18
740 544 8.6736173798840355e-19
740 545 -0.0073717948717948716
740 546 6.5052130349130266e-19
740 580 0.001001602564102564
740 581 -0.0034989316239316262
740 582 0.0033386752136752157
740 583 -0.00020032051282051279
740 584 -0.0065170940170940208
740 585 0.0066773504273504296
740 697 -0.0040064102564102561
740 698 -0.0033119658119658158
740 699 -4.87890977618477e-18
740 700 0.00080128205128205223
740 701 -0.0047008547008547015
740 702 5.6378512969246231e-18
740 736 -4.3368086899420177e-18
740 737 0.02414529914529916
740 738 -3.4694469519536142e-18
740 739 3.903127820947816e-18
740 740 0.05598290598290602
741 502 -0.0020032051282051289
741 503 -0.0033386752136752187
741 504 -0.006837606837606848
741 505 0.00040064102564102687
741 506 -0.0066773504273504314
741 507 -0.013194444444444444
741 541 -0.0080128205128205156
741 542 -4.0115480381963664e-18
741 543 -0.024679487179487224
741 544 0.0016025641025641051
741 545 3.6862873864507151e-18
741 546 -0.047435897435897462
741 580 -0.0020032051282051276
741 581 0.0033386752136752153
741 582 -0.0068376068376068454
741 583 0.0004006410256410266
741 584 0.0066773504273504296
741 585 -0.013194444444444443
741 697 -2.439454888092385e-18
741 698 -5.2041704279304213e-18
741 699 0.01004273504273505
741 700 3.0357660829594124e-18
741 701 2.1684043449710089e-18
741 702 0.022008547008547028
741 736 -1.0083080204115191e-17
741 737 -4.7704895589362195e-18
741 738 0.050854700854700882
741 739 6.9388939039072284e-18
741 740 -9.540979117872439e-18
741 741 0.10940170940170948
742 508 -0.0038906695156695112
742 509 0.00020032051282051284
742 510 0.00040064102564102514
742 511 -0.0027866809116809093
742 512 0.001001602564102564
742 513 0.0020032051282051267
742 547 -0.0051103988603988558
742 548 -0.001001602564102564
742 549 0.00080128205128205104
742 550 -0.0042378917378917335
742 551 -0.000200320512820513
742 552 0.0040064102564102552
742 703 0.0058048433048432987
742 704 0.00080128205128205071
742 705 -4.3368086899420177e-19
742 706 -0.00046296296296296477
742 707 0.0040064102564102561
742 708 -4.3368086899420177e-19
742 742 0.022293447293447285
743 508 -0.00020032051282051276
743 509 -0.0065170940170940122
743 510 -0.0066773504273504236
743 511 0.001001602564102564
743 512 -0.003498931623931621
743 513 -0.0033386752136752118
743 547 -0.001001602564102564
743 548 -0.0036858974358974306
743 549 -0.001335470085470084
743 550 0.00020032051282051268
743 551 -0.0023237179487179452
743 552 -0.00066773504273504177
743 703 -0.0008012820512820519
743 704 -0.0047008547008547067
743 705 -8.6736173798840355e-19
743 706 0.0040064102564102561
743 707 -0.0033119658119658136
743 708 -4.3368086899420177e-19
743 742 -0.0040064102564102561
743 743 0.027991452991452986
744 508 -0.00040064102564102568
744 509 -0.0066773504273504236
744 510 -0.013194444444444431
744 511 0.0020032051282051267
744 512 -0.0033386752136752122
744 513 -0.0068376068376068289
744 547 -0.00080128205128205115
744 548 0.0013354700854700868
744 549 -0.023717948717948696
744 550 0.0040064102564102543
744 551 0.00066773504273504318
744 552 -0.012339743589743575
744 703 -8.6736173798840355e-19
744 704 -4.3368086899420177e-19
744 705 0.022008547008546986
744 706 -5.9631119486702744e-19
744 707 2.1684043449710089e-19
744 708 0.010042735042735031
744 742 8.6736173798840355e-19
744 743 -3.4694469519536142e-18
744 744 0.05470085470085468
745 508 -0.0027866809116809089
745 509 -0.001001602564102564
745 510 -0.0020032051282051267
745 511 -0.0077813390313390234
745 512 1.3552527156068805e-19
745 513 -5.4210108624275222e-20
745 514 -0.0027866809116809097
745 515 0.001001602564102564
745 516 0.0020032051282051272
745 547 -0.0042378917378917335
745 548 0.00020032051282051303
745 549 -0.0040064102564102543
745 550 -0.01022079772079771
745 551 -2.1684043449710089e-19
745 552 1.0842021724855044e-19
745 553 -0.0042378917378917353
745 554 -0.00020032051282051311
745 555 0.0040064102564102552
745 703 -0.00046296296296296504
745 704 -0.0040064102564102552
745 705 -5.4210108624275222e-20
745 706 0.011609686609686596
745 707 -4.3368086899420177e-19
745 708 -1.3010426069826053e-18
745 709 -0.00046296296296296482
745 710 0.0040064102564102561
745 711 5.4210108624275222e-20
745 742 0.0044159544159544104
745 743 0.00080128205128205125
745 744 -1.0842021724855044e-19
745 745 0.04458689458689457
746 508 -0.001001602564102564
746 509 -0.003498931623931621
746 510 -0.0033386752136752114
746 511 2.7105054312137611e-20
746 512 -0.013034188034188026
746 513 -0.013354700854700849
746 514 0.001001602564102564
746 515 -0.0034989316239316219
746 516 -0.0033386752136752122
746 547 -0.00020032051282051265
746 548 -0.0023237179487179448
746 549 -0.00066773504273504177
746 550 0
746 551 -0.0073717948717948577
746 552 -0.0026709401709401667
746 553 0.00020032051282051265
746 554 -0.0023237179487179457
746 555 -0.00066773504273504145
746 703 -0.0040064102564102561
746 704 -0.0033119658119658132
746 705 -3.2526065174565133e-19
746 706 -7.589415207398531e-19
746 707 -0.0094017094017094169
746 708 -6.5052130349130266e-19
746 709 0.0040064102564102561
746 710 -0.0033119658119658141
746 711 -1.5178830414797062e-18
746 742 -0.00080128205128205147
746 743 0.012072649572649566
746 744 -2.1684043449710089e-18
746 745 4.3368086899420177e-19
746 746 0.055982905982905971
747 508 -0.0020032051282051267
747 509 -0.0033386752136752122
747 510 -0.0068376068376068289
747 511 1.0842021724855044e-19
747 512 -0.013354700854700849
747 513 -0.026388888888888858
747 514 0.0020032051282051272
747 515 -0.0033386752136752122
747 516 -0.0068376068376068307
747 547 -0.0040064102564102543
747 548 0.00066773504273504329
747 549 -0.012339743589743574
747 550 0
747 551 0.0026709401709401732
747 552 -0.047435897435897385
747 553 0.0040064102564102543
747 554 0.00066773504273504362
747 555 -0.012339743589743579
747 703 -3.7947076036992655e-19
747 704 0
747 705 0.010042735042735031
747 706 -2.1684043449710089e-18
747 707 -4.3368086899420177e-19
747 708 0.044017094017093972
747 709 4.3368086899420177e-19
747 710 -1.4094628242311558e-18
747 711 0.010042735042735031
747 742 6.5052130349130266e-19
747 743 -2.1684043449710089e-18
747 744 0.025427350427350406
747 745 -1.7347234759768071e-18
747 746 -9.540979117872439e-18
747 747 0.10940170940170935
748 511 -0.0027866809116809089
748 512 -0.001001602564102564
748 513 -0.0020032051282051267
748 514 -0.0077813390313390234
748 515 1.3552527156068805e-19
748 516 -5.4210108624275222e-20
748 517 -0.0027866809116809089
748 518 0.001001602564102564
748 519 0.0020032051282051267
748 550 -0.0042378917378917318
748 551 0.00020032051282051306
748 552 -0.0040064102564102543
748 553 -0.010220797720797708
748 554 -2.1684043449710089e-19
748 555 -1.0842021724855044e-19
748 556 -0.0042378917378917335
748 557 -0.00020032051282051314
748 558 0.0040064102564102543
748 706 -0.00046296296296296531
748 707 -0.0040064102564102552
748 708 7.589415207398531e-19
748 709 0.011609686609686597
748 710 -4.87890977618477e-19
748 711 -1.3010426069826053e-18
748 712 -0.00046296296296296401
748 713 0.0040064102564102561
748 714 -7.589415207398531e-19
748 745 0.0044159544159544113
748 746 0.00080128205128205125
748 747 1.3010426069826053e-18
748 748 0.044586894586894563
749 511 -0.001001602564102564
749 512 -0.0034989316239316202
749 513 -0.0033386752136752118
749 514 1.0842021724855044e-19
749 515 -0.013034188034188026
749 516 -0.013354700854700849
749 517 0.001001602564102564
749 518 -0.003498931623931621
749 519 -0.0033386752136752118
749 550 -0.0002003205128205126
749 551 -0.0023237179487179439
749 552 -0.00066773504273504134
749 553 0
749 554 -0.0073717948717948577
749 555 -0.0026709401709401675
749 556 0.0002003205128205126
749 557 -0.0023237179487179435
749 558 -0.00066773504273504134
749 706 -0.0040064102564102561
749 707 -0.0033119658119658141
749 708 1.6263032587282567e-18
749 709 -7.589415207398531e-19
749 710 -0.0094017094017094151
749 711 -1.5178830414797062e-18
749 712 0.0040064102564102561
749 713 -0.0033119658119658141
749 714 -6.5052130349130266e-19
749 745 -0.00080128205128205125
749 746 0.012072649572649564
749 747 -1.3010426069826053e-18
749 748 4.3368086899420177e-19
749 749 0.055982905982905971
750 511 -0.0020032051282051267
750 512 -0.0033386752136752118
750 513 -0.0068376068376068255
750 514 1.0842021724855044e-19
750 515 -0.013354700854700849
750 516 -0.026388888888888858
750 517 0.0020032051282051267
750 518 -0.0033386752136752118
750 519 -0.0068376068376068281
750 550 -0.0040064102564102543
750 551 0.00066773504273504372
750 552 -0.012339743589743572
750 553 -1.0842021724855044e-19
750 554 0.0026709401709401736
750 555 -0.047435897435897385
750 556 0.0040064102564102543
750 557 0.00066773504273504394
750 558 -0.012339743589743575
750 706 2.7105054312137611e-19
750 707 1.5178830414797062e-18
750 708 0.010042735042735031
750 709 -1.3010426069826053e-18
750 710 8.6736173798840355e-19
750 711 0.044017094017093979
750 712 -5.9631119486702744e-19
750 713 1.0842021724855044e-19
750 714 0.010042735042735035
750 745 9.7578195523695399e-19
750 746 -1.7347234759768071e-18
750 747 0.025427350427350406
750 748 8.6736173798840355e-19
750 749 -1.214306433183765e-17
750 750 0.10940170940170935
751 514 -0.0027866809116809093
751 515 -0.001001602564102564
751 516 -0.0020032051282051267
751 517 -0.0077813390313390216
751 518 5.4210108624275222e-20
751 519 -5.4210108624275222e-20
751 520 -0.0027866809116809089
751 521 0.001001602564102564
751 522 0.0020032051282051267
751 553 -0.0042378917378917335
751 554 0.000200320512820513
751 555 -0.0040064102564102543
751 556 -0.010220797720797706
751 557 0
751 558 -3.2526065174565133e-19
751 559 -0.0042378917378917344
751 560 -0.00020032051282051308
751 561 0.0040064102564102552
751 709 -0.00046296296296296504
751 710 -0.0040064102564102561
751 711 -3.7947076036992655e-19
751 712 0.011609686609686597
751 713 -5.9631119486702744e-19
751 714 -8.6736173798840355e-19
751 715 -0.00046296296296296623
751 716 0.0040064102564102561
751 717 -2.1684043449710089e-19
751 748 0.004415954415954413
751 749 0.00080128205128205082
751 750 -5.4210108624275222e-19
751 751 0.044586894586894563
752 514 -0.001001602564102564
752 515 -0.0034989316239316215
752 516 -0.0033386752136752127
752 517 8.1315162936412833e-20
752 518 -0.013034188034188023
752 519 -0.013354700854700847
752 520 0.0010016025641025642
752 521 -0.0034989316239316202
752 522 -0.0033386752136752109
752 553 -0.00020032051282051273
752 554 -0.0023237179487179444
752 555 -0.00066773504273504199
752 556 2.1684043449710089e-19
752 557 -0.007371794871794856
752 558 -0.0026709401709401675
752 559 0.00020032051282051257
752 560 -0.0023237179487179457
752 561 -0.00066773504273504145
752 709 -0.0040064102564102561
752 710 -0.0033119658119658149
752 711 -1.951563910473908e-18
752 712 -4.3368086899420177e-19
752 713 -0.0094017094017094134
752 714 -2.3852447794681098e-18
752 715 0.0040064102564102561
752 716 -0.0033119658119658132
752 717 -1.4094628242311558e-18
752 748 -0.00080128205128205169
752 749 0.01207264957264957
752 750 -2.6020852139652106e-18
752 751 1.3010426069826053e-18
752 752 0.055982905982905964
753 514 -0.0020032051282051267
753 515 -0.0033386752136752127
753 516 -0.0068376068376068307
753 517 1.6263032587282567e-19
753 518 -0.013354700854700847
753 519 -0.026388888888888858
753 520 0.0020032051282051272
753 521 -0.0033386752136752105
753 522 -0.0068376068376068272
753 553 -0.0040064102564102543
753 554 0.00066773504273504329
753 555 -0.012339743589743577
753 556 -3.2526065174565133e-19
753 557 0.0026709401709401727
753 558 -0.047435897435897378
753 559 0.0040064102564102543
753 560 0.00066773504273504296
753 561 -0.012339743589743577
753 709 -7.0473141211557788e-19
753 710 -1.4094628242311558e-18
753 711 0.010042735042735031
753 712 -8.6736173798840355e-19
753 713 -2.3852447794681098e-18
753 714 0.044017094017093972
753 715 1.0842021724855044e-19
753 716 -1.8431436932253575e-18
753 717 0.010042735042735028
753 748 -2.1684043449710089e-19
753 749 -1.7347234759768071e-18
753 750 0.025427350427350413
753 751 -3.4694469519536142e-18
753 752 -5.2041704279304213e-18
753 753 0.10940170940170932
754 517 -0.002786680911680908
754 518 -0.001001602564102564
754 519 -0.0020032051282051267
754 520 -0.0077813390313390234
754 521 2.7105054312137611e-20
754 522 2.7105054312137611e-19
754 523 -0.0027866809116809093
754 524 0.0010016025641025642
754 525 0.0020032051282051267
754 556 -0.0042378917378917309
754 557 0.00020032051282051303
754 558 -0.0040064102564102543
754 559 -0.010220797720797708
754 560 2.1684043449710089e-19
754 561 1.0842021724855044e-19
754 562 -0.0042378917378917335
754 563 -0.00020032051282051314
754 564 0.0040064102564102543
754 712 -0.00046296296296296678
754 713 -0.0040064102564102552
754 714 4.3368086899420177e-19
754 715 0.011609686609686594
754 716 -5.4210108624275222e-19
754 717 -1.3010426069826053e-18
754 718 -0.00046296296296296228
754 719 0.0040064102564102561
754 720 -1.0299920638612292e-18
754 751 0.004415954415954406
754 752 0.00080128205128205082
754 753 1.8431436932253575e-18
754 754 0.04458689458689457
755 517 -0.001001602564102564
755 518 -0.0034989316239316197
755 519 -0.0033386752136752109
755 520 -5.4210108624275222e-20
755 521 -0.013034188034188028
755 522 -0.013354700854700849
755 523 0.0010016025641025642
755 524 -0.0034989316239316223
755 525 -0.0033386752136752131
755 556 -0.00020032051282051257
755 557 -0.0023237179487179426
755 558 -0.00066773504273504134
755 559 2.1684043449710089e-19
755 560 -0.0073717948717948577
755 561 -0.0026709401709401693
755 562 0.0002003205128205126
755 563 -0.0023237179487179439
755 564 -0.00066773504273504199
755 712 -0.0040064102564102552
755 713 -0.0033119658119658136
755 714 -1.0842021724855044e-19
755 715 -7.0473141211557788e-19
755 716 -0.0094017094017094169
755 717 -8.6736173798840355e-19
755 718 0.0040064102564102561
755 719 -0.0033119658119658141
755 720 -1.0842021724855044e-19
755 751 -0.00080128205128205125
755 752 0.012072649572649561
755 753 8.6736173798840355e-19
755 754 1.3010426069826053e-18
755 755 0.055982905982905971
756 517 -0.0020032051282051272
756 518 -0.0033386752136752109
756 519 -0.0068376068376068246
756 520 2.7105054312137611e-19
756 521 -0.013354700854700849
756 522 -0.026388888888888861
756 523 0.0020032051282051267
756 524 -0.0033386752136752131
756 525 -0.0068376068376068307
756 556 -0.0040064102564102543
756 557 0.00066773504273504264
756 558 -0.012339743589743567
756 559 1.0842021724855044e-19
756 560 0.002670940170940171
756 561 -0.047435897435897392
756 562 0.0040064102564102543
756 563 0.00066773504273504383
756 564 -0.012339743589743577
756 712 1.0842021724855044e-19
756 713 1.0842021724855044e-19
756 714 0.010042735042735028
756 715 -1.3010426069826053e-18
756 716 -4.3368086899420177e-19
756 717 0.044017094017093986
756 718 -5.9631119486702744e-19
756 719 -6.5052130349130266e-19
756 720 0.010042735042735038
756 751 1.7347234759768071e-18
756 752 -8.6736173798840355e-19
756 753 0.025427350427350399
756 754 -8.6736173798840355e-19
756 755 -9.540979117872439e-18
756 756 0.10940170940170935
757 520 -0.0027866809116809106
757 521 -0.0010016025641025642
757 522 -0.0020032051282051267
757 523 -0.0077813390313390251
757 524 5.4210108624275222e-20
757 525 1.6263032587282567e-19
757 526 -0.0027866809116809093
757 527 0.001001602564102564
757 528 0.0020032051282051267
757 559 -0.0042378917378917344
757 560 0.00020032051282051292
757 561 -0.0040064102564102543
757 562 -0.010220797720797712
757 563 -2.1684043449710089e-19
757 564 8.6736173798840355e-19
757 565 -0.0042378917378917309
757 566 -0.00020032051282051284
757 567 0.0040064102564102543
757 715 -0.00046296296296296325
757 716 -0.0040064102564102561
757 717 -3.2526065174565133e-19
757 718 0.011609686609686596
757 719 -9.7578195523695399e-19
757 720 0
757 721 -0.00046296296296296602
757 722 0.0040064102564102561
757 723 -4.87890977618477e-19
757 754 0.0044159544159544191
757 755 0.00080128205128205082
757 756 -7.589415207398531e-19
757 757 0.044586894586894577
758 520 -0.001001602564102564
758 521 -0.0034989316239316236
758 522 -0.003338675213675214
758 523 2.7105054312137611e-20
758 524 -0.01303418803418803
758 525 -0.013354700854700852
758 526 0.0010016025641025642
758 527 -0.0034989316239316215
758 528 -0.0033386752136752118
758 559 -0.00020032051282051273
758 560 -0.0023237179487179452
758 561 -0.00066773504273504286
758 562 0
758 563 -0.0073717948717948604
758 564 -0.0026709401709401701
758 565 0.00020032051282051284
758 566 -0.0023237179487179426
758 567 -0.00066773504273504188
758 715 -0.0040064102564102552
758 716 -0.0033119658119658162
758 717 -1.8431436932253575e-18
758 718 -1.1384122811097797e-18
758 719 -0.0094017094017094169
758 720 2.8189256484623115e-18
758 721 0.0040064102564102561
758 722 -0.0033119658119658162
758 723 -2.2768245622195593e-18
758 754 -0.00080128205128205158
758 755 0.012072649572649578
758 756 8.6736173798840355e-19
758 757 4.3368086899420177e-19
758 758 0.055982905982905978
759 520 -0.0020032051282051267
759 521 -0.003338675213675214
759 522 -0.0068376068376068324
759 523 2.1684043449710089e-19
759 524 -0.013354700854700849
759 525 -0.026388888888888865
759 526 0.0020032051282051267
759 527 -0.0033386752136752122
759 528 -0.0068376068376068272
759 559 -0.0040064102564102543
759 560 0.00066773504273504307
759 561 -0.012339743589743584
759 562 5.4210108624275222e-19
759 563 0.0026709401709401719
759 564 -0.047435897435897392
759 565 0.0040064102564102543
759 566 0.00066773504273504264
759 567 -0.012339743589743567
759 715 -8.1315162936412833e-19
759 716 -2.7105054312137611e-18
759 717 0.010042735042735038
759 718 0
759 719 3.6862873864507151e-18
759 720 0.044017094017093979
759 721 -3.7947076036992655e-19
759 722 -1.0842021724855044e-18
759 723 0.010042735042735031
759 754 -8.6736173798840355e-19
759 755 1.7347234759768071e-18
759 756 0.025427350427350427
759 757 4.3368086899420177e-18
759 758 -7.8062556418956319e-18
759 759 0.10940170940170937
760 523 -0.0027866809116809084
760 524 -0.0010016025641025638
760 525 -0.0020032051282051267
760 526 -0.0077813390313390251
760 527 8.1315162936412833e-20
760 528 0
760 529 -0.002786680911680911
760 530 0.001001602564102564
760 531 0.0020032051282051272
760 562 -0.0042378917378917353
760 563 0.00020032051282051319
760 564 -0.0040064102564102552
760 565 -0.010220797720797713
760 566 0
760 567 4.3368086899420177e-19
760 568 -0.004237891737891737
760 569 -0.00020032051282051325
760 570 0.0040064102564102543
760 718 -0.00046296296296296493
760 719 -0.0040064102564102552
760 720 -5.4210108624275222e-20
760 721 0.011609686609686599
760 722 -1.0299920638612292e-18
760 723 -1.3010426069826053e-18
760 724 -0.00046296296296296168
760 725 0.0040064102564102561
760 726 7.0473141211557788e-19
760 757 0.0044159544159544095
760 758 0.0008012820512820519
760 759 -2.8189256484623115e-18
760 760 0.044586894586894577
761 523 -0.0010016025641025638
761 524 -0.0034989316239316202
761 525 -0.0033386752136752109
761 526 8.1315162936412833e-20
761 527 -0.01303418803418803
761 528 -0.013354700854700851
761 529 0.0010016025641025638
761 530 -0.0034989316239316228
761 531 -0.0033386752136752135
761 562 -0.00020032051282051241
761 563 -0.002323717948717947
761 564 -0.00066773504273504025
761 565 0
761 566 -0.0073717948717948638
761 567 -0.0026709401709401675
761 568 0.00020032051282051238
761 569 -0.0023237179487179487
761 570 -0.00066773504273504036
761 718 -0.0040064102564102552
761 719 -0.0033119658119658115
761 720 -1.3010426069826053e-18
761 721 -7.0473141211557788e-19
761 722 -0.0094017094017094169
761 723 -2.6020852139652106e-18
761 724 0.0040064102564102543
761 725 -0.0033119658119658106
761 726 -1.951563910473908e-18
761 757 -0.0008012820512820505
761 758 0.012072649572649566
761 759 -8.6736173798840355e-19
761 760 1.3010426069826053e-18
761 761 0.055982905982905978
762 523 -0.0020032051282051267
762 524 -0.0033386752136752114
762 525 -0.0068376068376068272
762 526 0
762 527 -0.013354700854700852
762 528 -0.026388888888888865
762 529 0.0020032051282051276
762 530 -0.0033386752136752135
762 531 -0.006837606837606835
762 562 -0.0040064102564102552
762 563 0.00066773504273504448
762 564 -0.012339743589743582
762 565 5.4210108624275222e-19
762 566 0.0026709401709401736
762 567 -0.047435897435897406
762 568 0.0040064102564102552
762 569 0.00066773504273504524
762 570 -0.012339743589743591
762 718 -3.2526065174565133e-19
762 719 -2.0599841277224584e-18
762 720 0.010042735042735031
762 721 -2.1684043449710089e-18
762 722 -8.6736173798840355e-19
762 723 0.044017094017093986
762 724 7.0473141211557788e-19
762 725 -2.3852447794681098e-18
762 726 0.01004273504273504
762 757 -1.951563910473908e-18
762 758 0
762 759 0.025427350427350406
762 760 0
762 761 -6.9388939039072284e-18
762 762 0.10940170940170937
763 526 -0.0027866809116809093
763 527 -0.001001602564102564
763 528 -0.0020032051282051263
763 529 -0.0077813390313390199
763 530 -1.0842021724855044e-19
763 531 -1.0842021724855044e-19
763 532 -0.0027866809116809063
763 533 0.0010016025641025642
763 534 0.0020032051282051263
763 565 -0.0042378917378917327
763 566 0.00020032051282051273
763 567 -0.0040064102564102535
763 568 -0.010220797720797703
763 569 -2.1684043449710089e-19
763 570 4.3368086899420177e-19
763 571 -0.0042378917378917257
763 572 -0.00020032051282051249
763 573 0.0040064102564102526
763 721 -0.00046296296296296369
763 722 -0.0040064102564102552
763 723 9.2157184661267877e-19
763 724 0.011609686609686596
763 725 -1.463672932855431e-18
763 726 -1.3010426069826053e-18
763 727 -0.00046296296296297165
763 728 0.0040064102564102561
763 729 -1.3552527156068805e-18
763 760 0.0044159544159544191
763 761 0.00080128205128205006
763 762 1.8431436932253575e-18
763 763 0.04458689458689457
764 526 -0.001001602564102564
764 527 -0.0034989316239316223
764 528 -0.0033386752136752131
764 529 -8.1315162936412833e-20
764 530 -0.013034188034188021
764 531 -0.013354700854700845
764 532 0.0010016025641025642
764 533 -0.0034989316239316184
764 534 -0.0033386752136752079
764 565 -0.00020032051282051292
764 566 -0.0023237179487179448
764 567 -0.00066773504273504242
764 568 0
764 569 -0.0073717948717948525
764 570 -0.0026709401709401693
764 571 0.00020032051282051306
764 572 -0.0023237179487179366
764 573 -0.00066773504273504329
764 721 -0.0040064102564102561
764 722 -0.0033119658119658175
764 723 3.1441863002079629e-18
764 724 -1.4094628242311558e-18
764 725 -0.0094017094017094099
764 726 -2.6020852139652106e-18
764 727 0.0040064102564102561
764 728 -0.0033119658119658184
764 729 3.5778671692021646e-18
764 760 -0.00080128205128205212
764 761 0.012072649572649573
764 762 4.3368086899420177e-19
764 763 -8.6736173798840355e-19
764 764 0.055982905982905964
765 526 -0.0020032051282051267
765 527 -0.0033386752136752135
765 528 -0.0068376068376068307
765 529 2.1684043449710089e-19
765 530 -0.013354700854700845
765 531 -0.026388888888888851
765 532 0.0020032051282051263
765 533 -0.0033386752136752075
765 534 -0.0068376068376068185
765 565 -0.0040064102564102543
765 566 0.00066773504273504286
765 567 -0.012339743589743579
765 568 1.5178830414797062e-18
765 569 0.0026709401709401697
765 570 -0.047435897435897365
765 571 0.0040064102564102526
765 572 0.00066773504273504025
765 573 -0.012339743589743544
765 721 5.4210108624275222e-19
765 722 2.2768245622195593e-18
765 723 0.010042735042735037
765 724 -1.7347234759768071e-18
765 725 3.0357660829594124e-18
765 726 0.044017094017093958
765 727 -1.0299920638612292e-18
765 728 3.6862873864507151e-18
765 729 0.010042735042735014
765 760 2.1684043449710089e-18
765 761 -8.6736173798840355e-19
765 762 0.025427350427350427
765 763 3.4694469519536142e-18
765 764 -1.5612511283791264e-17
765 765 0.10940170940170932
766 529 -0.0027866809116809071
766 530 -0.001001602564102564
766 531 -0.0020032051282051267
766 532 -0.0077813390313390199
766 533 -2.9815559743351372e-19
766 534 -2.1684043449710089e-19
766 535 -0.0027866809116809123
766 536 0.0010016025641025642
766 537 0.0020032051282051272
766 568 -0.0042378917378917353
766 569 0.00020032051282051344
766 570 -0.0040064102564102543
766 571 -0.010220797720797701
766 572 -1.0842021724855044e-18
766 573 -8.6736173798840355e-19
766 574 -0.0042378917378917448
766 575 -0.00020032051282051268
766 576 0.0040064102564102569
766 724 -0.00046296296296296846
766 725 -0.0040064102564102543
766 726 -9.7578195523695399e-19
766 727 0.011609686609686594
766 728 -2.439454888092385e-18
766 729 -2.6020852139652106e-18
766 730 -0.00046296296296296526
766 731 0.0040064102564102561
766 732 1.7889335846010823e-18
766 763 0.0044159544159543956
766 764 0.00080128205128205277
766 765 -4.9873299934333204e-18
766 766 0.044586894586894563
767 529 -0.0010016025641025638
767 530 -0.0034989316239316167
767 531 -0.0033386752136752062
767 532 -3.2526065174565133e-19
767 533 -0.013034188034188021
767 534 -0.013354700854700845
767 535 0.0010016025641025642
767 536 -0.0034989316239316258
767 537 -0.0033386752136752166
767 568 -0.00020032051282051216
767 569 -0.0023237179487179457
767 570 -0.00066773504273503874
767 571 -8.6736173798840355e-19
767 572 -0.0073717948717948525
767 573 -0.0026709401709401632
767 574 0.00020032051282051303
767 575 -0.0023237179487179556
767 576 -0.00066773504273504416
767 724 -0.0040064102564102543
767 725 -0.0033119658119658063
767 726 0
767 727 -2.6562953225894859e-18
767 728 -0.0094017094017094134
767 729 -6.2883726004159257e-18
767 730 0.0040064102564102561
767 731 -0.0033119658119658206
767 732 -1.0083080204115191e-17
767 763 -0.0008012820512820493
767 764 0.012072649572649551
767 765 -3.903127820947816e-18
767 766 -3.4694469519536142e-18
767 767 0.055982905982905944
768 529 -0.0020032051282051267
768 530 -0.0033386752136752062
768 531 -0.0068376068376068229
768 532 -2.1684043449710089e-19
768 533 -0.013354700854700845
768 534 -0.026388888888888847
768 535 0.0020032051282051272
768 536 -0.0033386752136752161
768 537 -0.0068376068376068393
768 568 -0.0040064102564102552
768 569 0.00066773504273504481
768 570 -0.012339743589743577
768 571 -1.0842021724855044e-18
768 572 0.0026709401709401745
768 573 -0.047435897435897365
768 574 0.0040064102564102569
768 575 0.0006677350427350421
768 576 -0.012339743589743615
768 724 -1.0842021724855044e-18
768 725 -1.0842021724855044e-18
768 726 0.010042735042735017
768 727 -2.6020852139652106e-18
768 728 -8.2399365108898337e-18
768 729 0.044017094017093951
768 730 2.0057740190981832e-18
768 731 -1.0299920638612292e-17
768 732 0.010042735042735035
768 763 -4.6620693416876691e-18
768 764 -4.3368086899420177e-19
768 765 0.025427350427350372
768 766 -6.0715321659188248e-18
768 767 7.8062556418956319e-18
768 768 0.1094017094017093
769 532 -0.0027866809116809067
769 533 -0.0010016025641025638
769 534 -0.0020032051282051263
769 535 -0.0077813390313390286
769 536 8.1315162936412833e-20
769 537 0
769 538 -0.002786680911680908
769 539 0.0010016025641025638
769 540 0.0020032051282051267
769 571 -0.0042378917378917257
769 572 0.00020032051282051344
769 573 -0.0040064102564102526
769 574 -0.01022079772079772
769 575 0
769 576 -1.0842021724855044e-19
769 577 -0.0042378917378917266
769 578 -0.00020032051282051346
769 579 0.0040064102564102526
769 727 -0.00046296296296296238
769 728 -0.0040064102564102543
769 729 2.0599841277224584e-18
769 730 0.011609686609686599
769 731 -7.589415207398531e-19
769 732 -8.6736173798840355e-19
769 733 -0.00046296296296296016
769 734 0.0040064102564102543
769 735 -1.951563910473908e-18
769 766 0.0044159544159544147
769 767 0.00080128205128205256
769 768 9.1072982488782372e-18
769 769 0.044586894586894583
770 532 -0.0010016025641025638
770 533 -0.0034989316239316189
770 534 -0.0033386752136752114
770 535 1.3552527156068805e-19
770 536 -0.013034188034188033
770 537 -0.013354700854700854
770 538 0.0010016025641025638
770 539 -0.0034989316239316202
770 540 -0.0033386752136752114
770 571 -0.00020032051282051227
770 572 -0.0023237179487179361
770 573 -0.00066773504273503928
770 574 2.1684043449710089e-19
770 575 -0.0073717948717948673
770 576 -0.0026709401709401719
770 577 0.00020032051282051224
770 578 -0.002323717948717937
770 579 -0.00066773504273504036
770 727 -0.0040064102564102543
770 728 -0.0033119658119658097
770 729 2.1684043449710089e-19
770 730 -5.4210108624275222e-19
770 731 -0.0094017094017094186
770 732 7.3725747729014302e-18
770 733 0.0040064102564102543
770 734 -0.0033119658119658093
770 735 5.2041704279304213e-18
770 766 -0.00080128205128204974
770 767 0.01207264957264957
770 768 1.3010426069826053e-18
770 769 4.3368086899420177e-19
770 770 0.055982905982905985
771 532 -0.0020032051282051263
771 533 -0.0033386752136752109
771 534 -0.006837606837606822
771 535 0
771 536 -0.013354700854700854
771 537 -0.026388888888888871
771 538 0.0020032051282051267
771 539 -0.0033386752136752114
771 540 -0.0068376068376068272
771 571 -0.0040064102564102517
771 572 0.0006677350427350447
771 573 -0.012339743589743546
771 574 1.0842021724855044e-19
771 575 0.0026709401709401697
771 576 -0.047435897435897427
771 577 0.0040064102564102517
771 578 0.00066773504273504459
771 579 -0.012339743589743553
771 727 1.951563910473908e-18
771 728 3.4694469519536142e-18
771 729 0.010042735042735035
771 730 -8.6736173798840355e-19
771 731 1.0625181290357943e-17
771 732 0.044017094017093999
771 733 -2.0057740190981832e-18
771 734 7.6978354246470815e-18
771 735 0.010042735042735042
771 766 9.7578195523695399e-18
771 767 -3.0357660829594124e-18
771 768 0.025427350427350417
771 769 -8.6736173798840355e-19
771 770 -2.2551405187698492e-17
771 771 0.1094017094017094
772 535 -0.0027866809116809123
772 536 -0.0010016025641025642
772 537 -0.0020032051282051272
772 538 -0.0077813390313390225
772 539 2.7105054312137611e-19
772 540 5.4210108624275222e-19
772 541 -0.0027866809116809071
772 542 0.0010016025641025642
772 543 0.0020032051282051267
772 574 -0.0042378917378917457
772 575 0.0002003205128205126
772 576 -0.0040064102564102569
772 577 -0.010220797720797708
772 578 4.3368086899420177e-19
772 579 6.5052130349130266e-19
772 580 -0.0042378917378917387
772 581 -0.00020032051282051303
772 582 0.0040064102564102561
772 730 -0.00046296296296296439
772 731 -0.0040064102564102561
772 732 -1.8431436932253575e-18
772 733 0.011609686609686594
772 734 3.7947076036992655e-19
772 735 1.3010426069826053e-18
772 736 -0.00046296296296296764
772 737 0.0040064102564102561
772 738 -7.0473141211557788e-19
772 769 0.0044159544159544234
772 770 0.0008012820512820493
772 771 -9.7578195523695399e-18
772 772 0.04458689458689457
773 535 -0.0010016025641025642
773 536 -0.0034989316239316262
773 537 -0.0033386752136752153
773 538 2.1684043449710089e-19
773 539 -0.013034188034188026
773 540 -0.013354700854700852
773 541 0.0010016025641025642
773 542 -0.003498931623931618
773 543 -0.0033386752136752092
773 574 -0.00020032051282051314
773 575 -0.0023237179487179561
773 576 -0.00066773504273504578
773 577 4.3368086899420177e-19
773 578 -0.0073717948717948577
773 579 -0.0026709401709401649
773 580 0.00020032051282051262
773 581 -0.0023237179487179496
773 582 -0.00066773504273504069
773 730 -0.0040064102564102561
773 731 -0.0033119658119658219
773 732 -1.4094628242311558e-18
773 733 2.7105054312137611e-19
773 734 -0.0094017094017094169
773 735 -1.1926223897340549e-17
773 736 0.0040064102564102561
773 737 -0.0033119658119658123
773 738 5.4210108624275222e-19
773 769 -0.00080128205128205299
773 770 0.012072649572649578
773 771 -7.3725747729014302e-18
773 772 2.1684043449710089e-18
773 773 0.055982905982905978
774 535 -0.0020032051282051272
774 536 -0.0033386752136752166
774 537 -0.0068376068376068393
774 538 5.9631119486702744e-19
774 539 -0.013354700854700852
774 540 -0.026388888888888858
774 541 0.0020032051282051267
774 542 -0.0033386752136752096
774 543 -0.0068376068376068229
774 574 -0.0040064102564102569
774 575 0.00066773504273504112
774 576 -0.01233974358974362
774 577 6.5052130349130266e-19
774 578 0.0026709401709401762
774 579 -0.047435897435897392
774 580 0.0040064102564102552
774 581 0.00066773504273504394
774 582 -0.012339743589743588
774 730 -2.1684043449710089e-18
774 731 -3.1441863002079629e-18
774 732 0.010042735042735038
774 733 8.6736173798840355e-19
774 734 -1.2359904766334751e-17
774 735 0.044017094017093972
774 736 -7.0473141211557788e-19
774 737 -2.6020852139652106e-18
774 738 0.010042735042735024
774 769 -9.9746599868666408e-18
774 770 -3.0357660829594124e-18
774 771 0.025427350427350434
774 772 4.3368086899420177e-18
774 773 9.540979117872439e-18
774 774 0.10940170940170935
775 538 -0.0027866809116809084
775 539 -0.001001602564102564
775 540 -0.0020032051282051267
775 541 -0.0077813390313390234
775 542 2.9815559743351372e-19
775 543 9.2157184661267877e-19
775 544 -0.0027866809116809076
775 545 0.001001602564102564
775 546 0.0020032051282051263
775 577 -0.0042378917378917257
775 578 0.000200320512820513
775 579 -0.0040064102564102535
775 580 -0.01022079772079771
775 581 4.3368086899420177e-19
775 582 -2.1684043449710089e-19
775 583 -0.0042378917378917309
775 584 -0.00020032051282051352
775 585 0.0040064102564102535
775 733 -0.00046296296296296846
775 734 -0.0040064102564102552
775 735 -8.1315162936412833e-19
775 736 0.011609686609686597
775 737 5.4210108624275222e-20
775 738 2.6020852139652106e-18
775 739 -0.00046296296296295946
775 740 0.0040064102564102552
775 741 -3.3610267347050637e-18
775 772 0.0044159544159544017
775 773 0.00080128205128205093
775 774 5.9631119486702744e-18
775 775 0.044586894586894577
776 538 -0.001001602564102564
776 539 -0.0034989316239316193
776 540 -0.0033386752136752101
776 541 2.439454888092385e-19
776 542 -0.013034188034188028
776 543 -0.013354700854700849
776 544 0.0010016025641025638
776 545 -0.0034989316239316197
776 546 -0.0033386752136752122
776 577 -0.00020032051282051265
776 578 -0.0023237179487179374
776 579 -0.00066773504273504047
776 580 6.5052130349130266e-19
776 581 -0.0073717948717948586
776 582 -0.002670940170940171
776 583 0.00020032051282051216
776 584 -0.0023237179487179413
776 585 -0.00066773504273503971
776 733 -0.0040064102564102561
776 734 -0.0033119658119658132
776 735 -4.1199682554449168e-18
776 736 -5.4210108624275222e-20
776 737 -0.0094017094017094151
776 738 3.903127820947816e-18
776 739 0.0040064102564102543
776 740 -0.0033119658119658097
776 741 8.0230960763927328e-18
776 772 -0.00080128205128205147
776 773 0.012072649572649556
776 774 2.6020852139652106e-18
776 775 2.6020852139652106e-18
776 776 0.055982905982905971
777 538 -0.0020032051282051272
777 539 -0.0033386752136752101
777 540 -0.0068376068376068263
777 541 9.7578195523695399e-19
777 542 -0.013354700854700849
777 543 -0.026388888888888861
777 544 0.0020032051282051263
777 545 -0.0033386752136752122
777 546 -0.0068376068376068237
777 577 -0.0040064102564102535
777 578 0.00066773504273504307
777 579 -0.012339743589743546
777 580 -2.1684043449710089e-19
777 581 0.0026709401709401701
777 582 -0.047435897435897399
777 583 0.0040064102564102526
777 584 0.00066773504273504524
777 585 -0.012339743589743568
777 733 -7.589415207398531e-19
777 734 -2.4936649967166602e-18
777 735 0.010042735042735024
777 736 2.6020852139652106e-18
777 737 7.8062556418956319e-18
777 738 0.044017094017093986
777 739 -3.1441863002079629e-18
777 740 8.3483567281383841e-18
777 741 0.010042735042735042
777 772 6.3967928176644762e-18
777 773 1.3010426069826053e-18
777 774 0.025427350427350386
777 775 -8.6736173798840355e-19
777 776 -2.2551405187698492e-17
777 777 0.10940170940170936
778 541 -0.0027866809116809145
778 542 -0.0010016025641025644
778 543 -0.0020032051282051276
778 544 -0.0038906695156695156
778 545 -0.00020032051282051257
778 546 -0.00040064102564102438
778 580 -0.0042378917378917413
778 581 0.00020032051282051254
778 582 -0.0040064102564102552
778 583 -0.0051103988603988593
778 584 0.0010016025641025647
778 585 -0.00080128205128204963
778 736 -0.00046296296296296352
778 737 -0.0040064102564102561
778 738 -2.9815559743351372e-18
778 739 0.0058048433048432987
778 740 -0.00080128205128205039
778 741 3.0357660829594124e-18
778 775 0.0044159544159544234
778 776 0.0008012820512820493
778 777 -5.9631119486702744e-18
778 778 0.022293447293447299
779 541 -0.0010016025641025644
779 542 -0.0034989316239316284
779 543 -0.0033386752136752183
779 544 0.00020032051282051298
779 545 -0.0065170940170940182
779 546 -0.0066773504273504314
779 580 -0.00020032051282051317
779 581 -0.0023237179487179522
779 582 -0.00066773504273504557
779 583 0.0010016025641025647
779 584 -0.0036858974358974306
779 585 -0.0013354700854700842
779 736 -0.0040064102564102561
779 737 -0.0033119658119658228
779 738 -6.1799523831673753e-18
779 739 0.00080128205128205169
779 740 -0.0047008547008547136
779 741 1.0842021724855044e-18
779 775 -0.0008012820512820531
779 776 0.012072649572649578
779 777 -2.6020852139652106e-18
779 778 0.0040064102564102578
779 779 0.027991452991453017
780 541 -0.0020032051282051276
780 542 -0.0033386752136752183
780 543 -0.0068376068376068445
780 544 0.00040064102564102639
780 545 -0.0066773504273504323
780 546 -0.013194444444444441
780 580 -0.0040064102564102561
780 581 0.00066773504273504134
780 582 -0.012339743589743605
780 583 0.00080128205128205223
780 584 0.0013354700854700896
780 585 -0.023717948717948713
780 736 -3.3610267347050637e-18
780 737 -6.3967928176644762e-18
780 738 0.010042735042735038
780 739 3.4694469519536142e-18
780 740 -8.6736173798840355e-19
780 741 0.022008547008547007
780 775 -5.6378512969246231e-18
780 776 0
780 777 0.025427350427350434
780 778 4.3368086899420177e-18
780 779 6.0715321659188248e-18
780 780 0.054700854700854715
781 586 -0.0051103988603988576
781 587 0.0010016025641025634
781 588 0.00080128205128205147
781 589 -0.0042378917378917379
781 590 0.0002003205128205123
781 591 0.0040064102564102561
781 625 -0.0038906695156695143
781 626 -0.000200320512820513
781 627 0.00040064102564102574
781 628 -0.0027866809116809106
781 629 -0.0010016025641025634
781 630 0.0020032051282051276
781 781 0.011146723646723642
782 586 0.0010016025641025634
782 587 -0.0036858974358974362
782 588 0.0013354700854700857
782 589 -0.00020032051282051303
782 590 -0.0023237179487179496
782 591 0.00066773504273504275
782 625 0.00020032051282051235
782 626 -0.0065170940170940139
782 627 0.0066773504273504236
782 628 -0.0010016025641025634
782 629 -0.0034989316239316223
782 630 0.0033386752136752118
782 781 0.002003205128205128
782 782 0.013995726495726489
783 586 -0.0008012820512820505
783 587 -0.0013354700854700842
783 588 -0.023717948717948707
783 589 0.0040064102564102552
783 590 -0.00066773504273504177
783 591 -0.012339743589743586
783 625 -0.00040064102564102519
783 626 0.0066773504273504236
783 627 -0.013194444444444439
783 628 0.0020032051282051272
783 629 0.0033386752136752118
783 630 -0.0068376068376068341
783 781 -0.0040064102564102552
783 782 -0.0066773504273504244
783 783 0.02735042735042734
784 586 -0.004237891737891737
784 587 -0.00020032051282051262
784 588 -0.0040064102564102552
784 589 -0.010220797720797724
784 590 2.1684043449710089e-19
784 591 2.1684043449710089e-19
784 592 -0.0042378917378917387
784 593 0.00020032051282051235
784 594 0.0040064102564102561
784 625 -0.0027866809116809102
784 626 0.0010016025641025636
784 627 -0.0020032051282051276
784 628 -0.0077813390313390303
784 629 -4.87890977618477e-19
784 630 1.6263032587282567e-19
784 631 -0.002786680911680911
784 632 -0.0010016025641025631
784 633 0.0020032051282051276
784 781 0.0022079772079772061
784 782 -0.00040064102564102574
784 783 0.00080128205128205104
784 784 0.022293447293447295
785 586 0.00020032051282051271
785 587 -0.0023237179487179496
785 588 0.00066773504273504296
785 589 0
785 590 -0.0073717948717948786
785 591 0.0026709401709401719
785 592 -0.00020032051282051303
785 593 -0.0023237179487179513
785 594 0.00066773504273504264
785 625 0.0010016025641025634
785 626 -0.0034989316239316223
785 627 0.0033386752136752118
785 628 -6.2341624917916505e-19
785 629 -0.01303418803418803
785 630 0.013354700854700849
785 631 -0.0010016025641025631
785 632 -0.0034989316239316228
785 633 0.0033386752136752118
785 781 0.00040064102564102536
785 782 0.0060363247863247831
785 783 -0.0033386752136752118
785 784 8.6736173798840355e-19
785 785 0.027991452991452986
786 586 -0.0040064102564102552
786 587 -0.00066773504273504166
786 588 -0.012339743589743586
786 589 1.0842021724855044e-19
786 590 -0.0026709401709401688
786 591 -0.047435897435897434
786 592 0.0040064102564102552
786 593 -0.00066773504273504231
786 594 -0.012339743589743591
786 625 -0.0020032051282051272
786 626 0.0033386752136752118
786 627 -0.0068376068376068341
786 628 3.2526065174565133e-19
786 629 0.013354700854700849
786 630 -0.026388888888888885
786 631 0.0020032051282051276
786 632 0.0033386752136752127
786 633 -0.0068376068376068367
786 781 -0.00080128205128205147
786 782 -0.0033386752136752118
786 783 0.012713675213675208
786 784 -8.6736173798840355e-19
786 785 -0.013354700854700852
786 786 0.054700854700854694
787 589 -0.004237891737891737
787 590 -0.0002003205128205126
787 591 -0.0040064102564102552
787 592 -0.010220797720797724
787 593 2.1684043449710089e-19
787 594 1.1926223897340549e-18
787 595 -0.0042378917378917379
787 596 0.0002003205128205123
787 597 0.0040064102564102561
787 628 -0.0027866809116809097
787 629 0.0010016025641025636
787 630 -0.0020032051282051272
787 631 -0.0077813390313390303
787 632 -4.87890977618477e-19
787 633 3.2526065174565133e-19
787 634 -0.0027866809116809106
787 635 -0.0010016025641025634
787 636 0.0020032051282051272
787 784 0.0022079772079772074
787 785 -0.00040064102564102574
787 786 0.0008012820512820518
787 787 0.022293447293447295
788 589 0.00020032051282051273
788 590 -0.0023237179487179474
788 591 0.00066773504273504264
788 592 2.1684043449710089e-19
788 593 -0.007371794871794876
788 594 0.0026709401709401719
788 595 -0.00020032051282051308
788 596 -0.0023237179487179496
788 597 0.00066773504273504286
788 628 0.0010016025641025636
788 629 -0.0034989316239316215
788 630 0.0033386752136752118
788 631 -5.1499603193061461e-19
788 632 -0.013034188034188033
788 633 0.013354700854700852
788 634 -0.0010016025641025636
788 635 -0.0034989316239316223
788 636 0.0033386752136752122
788 784 0.00040064102564102541
788 785 0.006036324786324784
788 786 -0.0033386752136752127
788 787 1.3010426069826053e-18
788 788 0.027991452991452989
789 589 -0.0040064102564102552
789 590 -0.0006677350427350421
789 591 -0.012339743589743582
789 592 7.589415207398531e-19
789 593 -0.0026709401709401688
789 594 -0.047435897435897434
789 595 0.0040064102564102543
789 596 -0.00066773504273504166
789 597 -0.012339743589743584
789 628 -0.0020032051282051272
789 629 0.0033386752136752118
789 630 -0.0068376068376068333
789 631 2.1684043449710089e-19
789 632 0.013354700854700852
789 633 -0.026388888888888885
789 634 0.0020032051282051272
789 635 0.0033386752136752122
789 636 -0.0068376068376068341
789 784 -0.00080128205128205082
789 785 -0.0033386752136752127
789 786 0.012713675213675212
789 787 -8.6736173798840355e-19
789 788 -0.013354700854700852
789 789 0.054700854700854701
790 592 -0.0042378917378917379
790 593 -0.00020032051282051276
790 594 -0.0040064102564102552
790 595 -0.01022079772079772
790 596 0
790 597 9.7578195523695399e-19
790 598 -0.004237891737891737
790 599 0.00020032051282051227
790 600 0.0040064102564102552
790 631 -0.002786680911680911
790 632 0.0010016025641025636
790 633 -0.0020032051282051276
790 634 -0.0077813390313390303
790 635 -3.5236570605778894e-19
790 636 2.7105054312137611e-19
790 637 -0.0027866809116809106
790 638 -0.0010016025641025634
790 639 0.0020032051282051276
790 787 0.0022079772079772065
790 788 -0.00040064102564102584
790 789 0.00080128205128205104
790 790 0.022293447293447288
791 592 0.00020032051282051268
791 593 -0.0023237179487179504
791 594 0.00066773504273504242
791 595 0
791 596 -0.007371794871794876
791 597 0.0026709401709401714
791 598 -0.00020032051282051295
791 599 -0.0023237179487179491
791 600 0.00066773504273504253
791 631 0.0010016025641025636
791 632 -0.0034989316239316228
791 633 0.0033386752136752122
791 634 -5.1499603193061461e-19
791 635 -0.013034188034188028
791 636 0.013354700854700849
791 637 -0.0010016025641025634
791 638 -0.0034989316239316215
791 639 0.0033386752136752109
791 787 0.00040064102564102536
791 788 0.0060363247863247831
791 789 -0.0033386752136752114
791 790 1.3010426069826053e-18
791 791 0.027991452991452982
792 592 -0.0040064102564102552
792 593 -0.0006677350427350421
792 594 -0.012339743589743589
792 595 6.5052130349130266e-19
792 596 -0.0026709401709401675
792 597 -0.047435897435897434
792 598 0.0040064102564102552
792 599 -0.00066773504273504177
792 600 -0.012339743589743582
792 631 -0.0020032051282051272
792 632 0.0033386752136752122
792 633 -0.0068376068376068367
792 634 3.2526065174565133e-19
792 635 0.013354700854700849
792 636 -0.026388888888888878
792 637 0.0020032051282051276
792 638 0.0033386752136752109
792 639 -0.0068376068376068341
792 787 -0.00080128205128205125
792 788 -0.0033386752136752118
792 789 0.012713675213675208
792 790 0
792 791 -0.013354700854700851
792 792 0.054700854700854694
793 595 -0.0042378917378917379
793 596 -0.00020032051282051252
793 597 -0.0040064102564102552
793 598 -0.010220797720797727
793 599 2.1684043449710089e-19
793 600 9.7578195523695399e-19
793 601 -0.0042378917378917387
793 602 0.00020032051282051219
793 603 0.0040064102564102561
793 634 -0.0027866809116809097
793 635 0.0010016025641025636
793 636 -0.0020032051282051272
793 637 -0.0077813390313390329
793 638 -5.1499603193061461e-19
793 639 4.3368086899420177e-19
793 640 -0.0027866809116809115
793 641 -0.0010016025641025636
793 642 0.0020032051282051276
793 790 0.0022079772079772056
793 791 -0.00040064102564102563
793 792 0.00080128205128205071
793 793 0.022293447293447295
794 595 0.00020032051282051276
794 596 -0.0023237179487179496
794 597 0.00066773504273504253
794 598 2.1684043449710089e-19
794 599 -0.0073717948717948803
794 600 0.0026709401709401736
794 601 -0.00020032051282051322
794 602 -0.0023237179487179509
794 603 0.0006677350427350434
794 634 0.0010016025641025634
794 635 -0.003498931623931621
794 636 0.0033386752136752105
794 637 -5.1499603193061461e-19
794 638 -0.013034188034188035
794 639 0.013354700854700854
794 640 -0.0010016025641025634
794 641 -0.0034989316239316245
794 642 0.003338675213675214
794 790 0.0004006410256410253
794 791 0.0060363247863247822
794 792 -0.0033386752136752118
794 793 1.3010426069826053e-18
794 794 0.027991452991452996
795 595 -0.0040064102564102552
795 596 -0.00066773504273504166
795 597 -0.012339743589743584
795 598 5.4210108624275222e-19
795 599 -0.0026709401709401684
795 600 -0.047435897435897448
795 601 0.0040064102564102552
795 602 -0.00066773504273504166
795 603 -0.012339743589743591
795 634 -0.0020032051282051272
795 635 0.0033386752136752109
795 636 -0.0068376068376068315
795 637 4.3368086899420177e-19
795 638 0.013354700854700854
795 639 -0.026388888888888889
795 640 0.0020032051282051276
795 641 0.0033386752136752144
795 642 -0.0068376068376068376
795 790 -0.00080128205128205158
795 791 -0.0033386752136752118
795 792 0.012713675213675208
795 793 -8.6736173798840355e-19
795 794 -0.013354700854700854
795 795 0.054700854700854708
796 598 -0.0042378917378917396
796 599 -0.00020032051282051271
796 600 -0.0040064102564102561
796 601 -0.010220797720797724
796 602 0
796 603 2.1684043449710089e-19
796 604 -0.0042378917378917396
796 605 0.00020032051282051241
796 606 0.0040064102564102569
796 637 -0.0027866809116809119
796 638 0.0010016025641025636
796 639 -0.002003205128205128
796 640 -0.007781339031339032
796 641 -5.1499603193061461e-19
796 642 4.87890977618477e-19
796 643 -0.0027866809116809102
796 644 -0.0010016025641025634
796 645 0.0020032051282051272
796 793 0.00220797720797721
796 794 -0.00040064102564102595
796 795 0.00080128205128205115
796 796 0.022293447293447295
797 598 0.00020032051282051271
797 599 -0.0023237179487179513
797 600 0.00066773504273504253
797 601 -2.1684043449710089e-19
797 602 -0.0073717948717948786
797 603 0.0026709401709401719
797 604 -0.00020032051282051284
797 605 -0.0023237179487179522
797 606 0.00066773504273504199
797 637 0.0010016025641025636
797 638 -0.0034989316239316241
797 639 0.0033386752136752144
797 640 -5.6920614055488983e-19
797 641 -0.013034188034188033
797 642 0.013354700854700856
797 643 -0.0010016025641025634
797 644 -0.0034989316239316215
797 645 0.0033386752136752109
797 793 0.00040064102564102519
797 794 0.0060363247863247866
797 795 -0.0033386752136752131
797 796 8.6736173798840355e-19
797 797 0.027991452991452996
798 598 -0.0040064102564102561
798 599 -0.00066773504273504264
798 600 -0.012339743589743596
798 601 -1.0842021724855044e-19
798 602 -0.0026709401709401701
798 603 -0.047435897435897441
798 604 0.0040064102564102569
798 605 -0.00066773504273504296
798 606 -0.012339743589743593
798 637 -0.0020032051282051276
798 638 0.0033386752136752148
798 639 -0.0068376068376068411
798 640 5.4210108624275222e-19
798 641 0.013354700854700856
798 642 -0.026388888888888892
798 643 0.0020032051282051272
798 644 0.0033386752136752114
798 645 -0.0068376068376068341
798 793 -0.00080128205128205147
798 794 -0.003338675213675214
798 795 0.012713675213675215
798 796 0
798 797 -0.013354700854700856
798 798 0.054700854700854729
799 601 -0.0042378917378917353
799 602 -0.00020032051282051238
799 603 -0.0040064102564102543
799 604 -0.010220797720797727
799 605 2.1684043449710089e-19
799 606 -6.5052130349130266e-19
799 607 -0.0042378917378917405
799 608 0.00020032051282051211
799 609 0.0040064102564102561
799 640 -0.0027866809116809102
799 641 0.0010016025641025636
799 642 -0.0020032051282051272
799 643 -0.0077813390313390338
799 644 -4.87890977618477e-19
799 645 1.6263032587282567e-19
799 646 -0.0027866809116809128
799 647 -0.0010016025641025636
799 648 0.0020032051282051276
799 796 0.0022079772079772048
799 797 -0.00040064102564102546
799 798 0.00080128205128205201
799 799 0.022293447293447295
800 601 0.00020032051282051298
800 602 -0.0023237179487179474
800 603 0.00066773504273504329
800 604 0
800 605 -0.0073717948717948777
800 606 0.0026709401709401719
800 607 -0.00020032051282051327
800 608 -0.0023237179487179517
800 609 0.00066773504273504351
800 640 0.0010016025641025636
800 641 -0.0034989316239316228
800 642 0.0033386752136752118
800 643 -5.6920614055488983e-19
800 644 -0.013034188034188036
800 645 0.013354700854700856
800 646 -0.0010016025641025636
800 647 -0.0034989316239316258
800 648 0.0033386752136752144
800 796 0.00040064102564102541
800 797 0.0060363247863247814
800 798 -0.0033386752136752118
800 799 1.3010426069826053e-18
800 800 0.027991452991452989
801 601 -0.0040064102564102552
801 602 -0.0006677350427350409
801 603 -0.012339743589743577
801 604 -6.5052130349130266e-19
801 605 -0.0026709401709401706
801 606 -0.047435897435897448
801 607 0.0040064102564102561
801 608 -0.00066773504273504231
801 609 -0.012339743589743598
801 640 -0.0020032051282051272
801 641 0.0033386752136752118
801 642 -0.006837606837606835
801 643 0
801 644 0.013354700854700852
801 645 -0.026388888888888892
801 646 0.002003205128205128
801 647 0.0033386752136752153
801 648 -0.0068376068376068411
801 796 -0.00080128205128204995
801 797 -0.0033386752136752105
801 798 0.012713675213675203
801 799 -1.7347234759768071e-18
801 800 -0.013354700854700856
801 801 0.054700854700854708
802 604 -0.0042378917378917361
802 605 -0.00020032051282051276
802 606 -0.0040064102564102543
802 607 -0.010220797720797717
802 608 -4.3368086899420177e-19
802 609 1.0842021724855044e-19
802 610 -0.0042378917378917379
802 611 0.00020032051282051281
802 612 0.0040064102564102561
802 643 -0.0027866809116809102
802 644 0.0010016025641025636
802 645 -0.0020032051282051267
802 646 -0.0077813390313390268
802 647 -5.9631119486702744e-19
802 648 4.3368086899420177e-19
802 649 -0.002786680911680908
802 650 -0.0010016025641025631
802 651 0.0020032051282051272
802 799 0.0022079772079772121
802 800 -0.00040064102564102606
802 801 0.00080128205128205212
802 802 0.022293447293447281
803 604 0.00020032051282051257
803 605 -0.0023237179487179474
803 606 0.00066773504273504134
803 607 -2.1684043449710089e-19
803 608 -0.0073717948717948751
803 609 0.0026709401709401701
803 610 -0.00020032051282051257
803 611 -0.0023237179487179504
803 612 0.00066773504273503852
803 643 0.0010016025641025634
803 644 -0.0034989316239316228
803 645 0.0033386752136752131
803 646 -6.7762635780344027e-19
803 647 -0.013034188034188026
803 648 0.013354700854700845
803 649 -0.0010016025641025629
803 650 -0.0034989316239316167
803 651 0.0033386752136752075
803 799 0.00040064102564102503
803 800 0.00603632478632479
803 801 -0.0033386752136752157
803 802 -4.3368086899420177e-19
803 803 0.027991452991452965
804 604 -0.0040064102564102552
804 605 -0.00066773504273504405
804 606 -0.012339743589743586
804 607 -2.1684043449710089e-19
804 608 -0.0026709401709401667
804 609 -0.04743589743589742
804 610 0.0040064102564102552
804 611 -0.00066773504273504405
804 612 -0.012339743589743581
804 643 -0.0020032051282051272
804 644 0.0033386752136752131
804 645 -0.0068376068376068341
804 646 4.3368086899420177e-19
804 647 0.013354700854700845
804 648 -0.026388888888888875
804 649 0.0020032051282051272
804 650 0.0033386752136752083
804 651 -0.0068376068376068263
804 799 -0.00080128205128205006
804 800 -0.0033386752136752153
804 801 0.012713675213675222
804 802 -1.7347234759768071e-18
804 803 -0.013354700854700838
804 804 0.054700854700854645
805 607 -0.0042378917378917335
805 608 -0.00020032051282051208
805 609 -0.0040064102564102543
805 610 -0.010220797720797719
805 611 -6.5052130349130266e-19
805 612 6.5052130349130266e-19
805 613 -0.004237891737891737
805 614 0.00020032051282051268
805 615 0.0040064102564102552
805 646 -0.0027866809116809097
805 647 0.0010016025641025636
805 648 -0.0020032051282051276
805 649 -0.0077813390313390268
805 650 -1.0028870095490916e-18
805 651 2.7105054312137611e-19
805 652 -0.0027866809116809128
805 653 -0.0010016025641025631
805 654 0.002003205128205128
805 802 0.0022079772079772043
805 803 -0.00040064102564102416
805 804 0.00080128205128205125
805 805 0.022293447293447288
806 607 0.00020032051282051322
806 608 -0.0023237179487179465
806 609 0.00066773504273504318
806 610 -4.3368086899420177e-19
806 611 -0.0073717948717948751
806 612 0.0026709401709401697
806 613 -0.00020032051282051265
806 614 -0.0023237179487179487
806 615 0.00066773504273504307
806 646 0.0010016025641025636
806 647 -0.003498931623931621
806 648 0.0033386752136752109
806 649 -1.0028870095490916e-18
806 650 -0.013034188034188026
806 651 0.013354700854700845
806 652 -0.0010016025641025631
806 653 -0.0034989316239316249
806 654 0.0033386752136752135
806 802 0.00040064102564102666
806 803 0.0060363247863247788
806 804 -0.0033386752136752105
806 805 -8.6736173798840355e-19
806 806 0.027991452991452979
807 607 -0.0040064102564102552
807 608 -0.00066773504273503982
807 609 -0.01233974358974357
807 610 5.4210108624275222e-19
807 611 -0.0026709401709401688
807 612 -0.047435897435897413
807 613 0.0040064102564102552
807 614 -0.00066773504273504242
807 615 -0.012339743589743589
807 646 -0.0020032051282051276
807 647 0.0033386752136752105
807 648 -0.0068376068376068324
807 649 0
807 650 0.013354700854700845
807 651 -0.026388888888888878
807 652 0.0020032051282051276
807 653 0.0033386752136752122
807 654 -0.0068376068376068437
807 802 -0.0008012820512820505
807 803 -0.0033386752136752092
807 804 0.012713675213675212
807 805 -8.6736173798840355e-19
807 806 -0.013354700854700851
807 807 0.054700854700854687
808 610 -0.004237891737891737
808 611 -0.00020032051282051219
808 612 -0.0040064102564102552
808 613 -0.010220797720797727
808 614 2.1684043449710089e-19
808 615 6.5052130349130266e-19
808 616 -0.0042378917378917396
808 617 0.00020032051282051189
808 618 0.0040064102564102561
808 649 -0.0027866809116809089
808 650 0.0010016025641025638
808 651 -0.0020032051282051267
808 652 -0.0077813390313390355
808 653 -5.1499603193061461e-19
808 654 3.2526065174565133e-19
808 655 -0.0027866809116809106
808 656 -0.0010016025641025638
808 657 0.0020032051282051272
808 805 0.0022079772079772035
808 806 -0.00040064102564102471
808 807 0.0008012820512820506
808 808 0.022293447293447306
809 610 0.00020032051282051317
809 611 -0.0023237179487179496
809 612 0.00066773504273504676
809 613 0
809 614 -0.0073717948717948777
809 615 0.0026709401709401723
809 616 -0.00020032051282051344
809 617 -0.0023237179487179522
809 618 0.00066773504273504513
809 649 0.0010016025641025636
809 650 -0.0034989316239316223
809 651 0.0033386752136752122
809 652 -4.87890977618477e-19
809 653 -0.013034188034188038
809 654 0.013354700854700863
809 655 -0.0010016025641025636
809 656 -0.0034989316239316245
809 657 0.0033386752136752144
809 805 0.00040064102564102633
809 806 0.0060363247863247814
809 807 -0.0033386752136752118
809 808 8.6736173798840355e-19
809 809 0.02799145299145301
810 610 -0.0040064102564102561
810 611 -0.00066773504273503874
810 612 -0.012339743589743589
810 613 6.5052130349130266e-19
810 614 -0.002670940170940171
810 615 -0.047435897435897448
810 616 0.0040064102564102552
810 617 -0.00066773504273504047
810 618 -0.012339743589743601
810 649 -0.0020032051282051267
810 650 0.0033386752136752118
810 651 -0.0068376068376068289
810 652 4.87890977618477e-19
810 653 0.013354700854700863
810 654 -0.026388888888888896
810 655 0.0020032051282051272
810 656 0.0033386752136752148
810 657 -0.0068376068376068333
810 805 -0.00080128205128205136
810 806 -0.0033386752136752105
810 807 0.012713675213675193
810 808 -1.7347234759768071e-18
810 809 -0.013354700854700863
810 810 0.054700854700854749
811 613 -0.0042378917378917344
811 614 -0.00020032051282051303
811 615 -0.0040064102564102535
811 616 -0.01022079772079772
811 617 6.5052130349130266e-19
811 618 1.6263032587282567e-18
811 619 -0.0042378917378917275
811 620 0.00020032051282051235
811 621 0.0040064102564102543
811 652 -0.0027866809116809132
811 653 0.0010016025641025634
811 654 -0.0020032051282051276
811 655 -0.0077813390313390286
811 656 -3.2526065174565133e-19
811 657 9.7578195523695399e-19
811 658 -0.0027866809116809089
811 659 -0.0010016025641025636
811 660 0.0020032051282051276
811 808 0.0022079772079772113
811 809 -0.00040064102564102649
811 810 0.00080128205128205234
811 811 0.022293447293447274
812 613 0.0002003205128205123
812 614 -0.0023237179487179461
812 615 0.00066773504273504069
812 616 4.3368086899420177e-19
812 617 -0.007371794871794876
812 618 0.0026709401709401727
812 619 -0.000200320512820513
812 620 -0.00232371794871794
812 621 0.00066773504273504188
812 652 0.0010016025641025634
812 653 -0.0034989316239316249
812 654 0.0033386752136752148
812 655 -3.2526065174565133e-19
812 656 -0.01303418803418803
812 657 0.013354700854700845
812 658 -0.0010016025641025636
812 659 -0.0034989316239316189
812 660 0.0033386752136752088
812 808 0.00040064102564102449
812 809 0.0060363247863247892
812 810 -0.0033386752136752144
812 811 2.1684043449710089e-18
812 812 0.027991452991452968
813 613 -0.0040064102564102543
813 614 -0.00066773504273504448
813 615 -0.012339743589743582
813 616 1.7347234759768071e-18
813 617 -0.0026709401709401645
813 618 -0.04743589743589742
813 619 0.0040064102564102535
813 620 -0.00066773504273504101
813 621 -0.012339743589743549
813 652 -0.0020032051282051276
813 653 0.003338675213675214
813 654 -0.0068376068376068454
813 655 8.6736173798840355e-19
813 656 0.013354700854700849
813 657 -0.026388888888888882
813 658 0.0020032051282051276
813 659 0.0033386752136752088
813 660 -0.0068376068376068289
813 808 -0.00080128205128204952
813 809 -0.0033386752136752148
813 810 0.012713675213675222
813 811 2.6020852139652106e-18
813 812 -0.013354700854700842
813 813 0.054700854700854645
814 616 -0.0042378917378917431
814 617 -0.00020032051282051262
814 618 -0.0040064102564102578
814 619 -0.01022079772079772
814 620 6.5052130349130266e-19
814 621 4.5536491244391186e-18
814 622 -0.0042378917378917335
814 623 0.00020032051282051184
814 624 0.0040064102564102535
814 655 -0.0027866809116809093
814 656 0.0010016025641025636
814 657 -0.002003205128205128
814 658 -0.0077813390313390303
814 659 -3.2526065174565133e-19
814 660 1.4094628242311558e-18
814 661 -0.0027866809116809097
814 662 -0.0010016025641025638
814 663 0.0020032051282051267
814 811 0.0022079772079772009
814 812 -0.00040064102564102574
814 813 0.00080128205128204735
814 814 0.022293447293447292
815 616 0.00020032051282051271
815 617 -0.0023237179487179556
815 618 0.00066773504273504242
815 619 4.3368086899420177e-19
815 620 -0.0073717948717948751
815 621 0.0026709401709401745
815 622 -0.00020032051282051357
815 623 -0.0023237179487179444
815 624 0.00066773504273504622
815 655 0.0010016025641025634
815 656 -0.0034989316239316202
815 657 0.0033386752136752088
815 658 -2.9815559743351372e-19
815 659 -0.01303418803418803
815 660 0.013354700854700852
815 661 -0.0010016025641025638
815 662 -0.0034989316239316236
815 663 0.0033386752136752148
815 811 0.00040064102564102536
815 812 0.006036324786324777
815 813 -0.0033386752136752088
815 814 2.1684043449710089e-18
815 815 0.027991452991452989
816 616 -0.0040064102564102578
816 617 -0.0006677350427350421
816 618 -0.012339743589743605
816 619 4.5536491244391186e-18
816 620 -0.0026709401709401667
816 621 -0.047435897435897434
816 622 0.0040064102564102535
816 623 -0.0006677350427350396
816 624 -0.012339743589743575
816 655 -0.0020032051282051276
816 656 0.0033386752136752096
816 657 -0.0068376068376068315
816 658 1.3552527156068805e-18
816 659 0.013354700854700852
816 660 -0.026388888888888882
816 661 0.0020032051282051267
816 662 0.003338675213675214
816 663 -0.0068376068376068315
816 811 -0.00080128205128205516
816 812 -0.0033386752136752105
816 813 0.012713675213675195
816 814 6.0715321659188248e-18
816 815 -0.013354700854700852
816 816 0.054700854700854701
817 619 -0.0042378917378917439
817 620 -0.00020032051282051308
817 621 -0.0040064102564102561
817 622 -0.0051103988603988688
817 623 -0.0010016025641025627
817 624 -0.0008012820512820493
817 658 -0.0027866809116809136
817 659 0.0010016025641025634
817 660 -0.002003205128205128
817 661 -0.003890669515669519
817 662 0.00020032051282051273
817 663 -0.00040064102564102454
817 814 0.0022079772079772139
817 815 -0.00040064102564102715
817 816 0.00080128205128204865
817 817 0.011146723646723655
818 619 0.00020032051282051219
818 620 -0.0023237179487179543
818 621 0.00066773504273504166
818 622 -0.0010016025641025629
818 623 -0.0036858974358974449
818 624 0.0013354700854700853
818 658 0.0010016025641025634
818 659 -0.0034989316239316262
818 660 0.0033386752136752148
818 661 -0.00020032051282051262
818 662 -0.0065170940170940208
818 663 0.0066773504273504296
818 814 0.000400641025641024
818 815 0.0060363247863247918
818 816 -0.0033386752136752153
818 817 -0.0020032051282051254
818 818 0.013995726495726505
819 619 -0.0040064102564102569
819 620 -0.00066773504273504481
819 621 -0.012339743589743614
819 622 0.00080128205128205256
819 623 -0.0013354700854700851
819 624 -0.023717948717948745
819 658 -0.002003205128205128
819 659 0.0033386752136752153
819 660 -0.0068376068376068497
819 661 0.00040064102564102639
819 662 0.0066773504273504305
819 663 -0.013194444444444451
819 814 -0.00080128205128205375
819 815 -0.0033386752136752183
819 816 0.012713675213675222
819 817 0.0040064102564102578
819 818 -0.0066773504273504323
819 819 0.027350427350427392
820 586 -0.0038906695156695138
820 587 0.00020032051282051257
820 588 0.00040064102564102563
820 589 -0.0027866809116809102
820 590 0.0010016025641025634
820 591 0.0020032051282051276
820 625 -0.01022079772079772
820 626 0
820 627 0.0016025641025641029
820 628 -0.0084757834757834757
820 629 -6.5052130349130266e-19
820 630 0.0080128205128205121
820 664 -0.0038906695156695147
820 665 -0.00020032051282051295
820 666 0.00040064102564102568
820 667 -0.0027866809116809106
820 668 -0.0010016025641025634
820 669 0.0020032051282051276
820 781 0.0029024216524216524
820 782 0.00040064102564102514
820 783 -0.0020032051282051276
820 784 -0.00023148148148148089
820 785 0.0020032051282051272
820 786 -0.00040064102564102557
820 820 0.022293447293447288
821 586 -0.00020032051282051271
821 587 -0.0065170940170940139
821 588 -0.0066773504273504227
821 589 0.0010016025641025634
821 590 -0.0034989316239316215
821 591 -0.0033386752136752114
821 625 2.1684043449710089e-19
821 626 -0.0073717948717948768
821 627 1.5178830414797062e-18
821 628 -6.2341624917916505e-19
821 629 -0.0046474358974358991
821 630 6.5052130349130266e-19
821 664 0.00020032051282051235
821 665 -0.0065170940170940139
821 666 0.0066773504273504244
821 667 -0.0010016025641025634
821 668 -0.0034989316239316223
821 669 0.0033386752136752118
821 781 -0.00040064102564102579
821 782 -0.0023504273504273468
821 783 0.0013354700854700844
821 784 0.0020032051282051272
821 785 -0.0016559829059829038
821 786 0.00066773504273504199
821 820 1.3010426069826053e-18
821 821 0.027991452991452982
822 586 -0.00040064102564102519
822 587 -0.0066773504273504236
822 588 -0.013194444444444441
822 589 0.0020032051282051272
822 590 -0.0033386752136752114
822 591 -0.006837606837606835
822 625 -0.0016025641025641016
822 626 1.951563910473908e-18
822 627 -0.047435897435897427
822 628 0.0080128205128205104
822 629 8.6736173798840355e-19
822 630 -0.024679487179487175
822 664 -0.00040064102564102525
822 665 0.0066773504273504236
822 666 -0.013194444444444441
822 667 0.0020032051282051276
822 668 0.0033386752136752118
822 669 -0.0068376068376068359
822 781 -0.0020032051282051276
822 782 -0.0013354700854700855
822 783 0.011004273504273502
822 784 0.0004006410256410253
822 785 -0.00066773504273504253
822 786 0.00502136752136752
822 820 -0.0080128205128205121
822 821 -8.6736173798840355e-19
822 822 0.054700854700854694
823 586 -0.0027866809116809102
823 587 -0.0010016025641025631
823 588 -0.0020032051282051276
823 589 -0.0077813390313390286
823 590 2.7105054312137611e-20
823 591 5.4210108624275222e-20
823 592 -0.002786680911680911
823 593 0.0010016025641025634
823 594 0.0020032051282051276
823 625 -0.0084757834757834757
823 626 2.439454888092385e-19
823 627 -0.0080128205128205121
823 628 -0.020441595441595448
823 629 2.1684043449710089e-19
823 630 8.6736173798840355e-19
823 631 -0.0084757834757834792
823 632 -6.5052130349130266e-19
823 633 0.0080128205128205121
823 664 -0.0027866809116809106
823 665 0.0010016025641025636
823 666 -0.0020032051282051276
823 667 -0.007781339031339032
823 668 -4.3368086899420177e-19
823 669 1.0842021724855044e-19
823 670 -0.002786680911680911
823 671 -0.0010016025641025631
823 672 0.002003205128205128
823 781 -0.00023148148148148089
823 782 -0.0020032051282051267
823 783 0.00040064102564102546
823 784 0.0058048433048433056
823 785 -5.4210108624275222e-19
823 786 -8.6736173798840355e-19
823 787 -0.00023148148148148035
823 788 0.0020032051282051276
823 789 -0.0004006410256410253
823 820 0.004415954415954413
823 821 -6.5052130349130266e-19
823 822 0.0016025641025641016
823 823 0.044586894586894583
824 586 -0.0010016025641025631
824 587 -0.003498931623931621
824 588 -0.0033386752136752118
824 589 2.7105054312137611e-20
824 590 -0.013034188034188028
824 591 -0.013354700854700849
824 592 0.0010016025641025636
824 593 -0.0034989316239316215
824 594 -0.0033386752136752122
824 625 2.439454888092385e-19
824 626 -0.0046474358974358991
824 627 7.589415207398531e-19
824 628 4.3368086899420177e-19
824 629 -0.014743589743589759
824 630 2.8189256484623115e-18
824 631 -5.9631119486702744e-19
824 632 -0.0046474358974359017
824 633 7.589415207398531e-19
824 664 0.0010016025641025634
824 665 -0.0034989316239316223
824 666 0.0033386752136752118
824 667 -6.2341624917916505e-19
824 668 -0.013034188034188033
824 669 0.013354700854700851
824 670 -0.0010016025641025631
824 671 -0.0034989316239316232
824 672 0.0033386752136752122
824 781 -0.0020032051282051267
824 782 -0.001655982905982904
824 783 0.00066773504273504221
824 784 -7.589415207398531e-19
824 785 -0.0047008547008546946
824 786 0.0026709401709401701
824 787 0.0020032051282051272
824 788 -0.0016559829059829036
824 789 0.00066773504273504166
824 820 -3.7947076036992655e-19
824 821 0.012072649572649564
824 822 -8.6736173798840355e-19
824 823 1.3010426069826053e-18
824 824 0.055982905982905971
825 586 -0.0020032051282051272
825 587 -0.0033386752136752118
825 588 -0.0068376068376068333
825 589 1.0842021724855044e-19
825 590 -0.013354700854700849
825 591 -0.026388888888888882
825 592 0.0020032051282051276
825 593 -0.0033386752136752122
825 594 -0.0068376068376068359
825 625 -0.0080128205128205104
825 626 8.6736173798840355e-19
825 627 -0.024679487179487175
825 628 7.589415207398531e-19
825 629 3.2526065174565133e-18
825 630 -0.094871794871794868
825 631 0.0080128205128205104
825 632 8.6736173798840355e-19
825 633 -0.024679487179487182
825 664 -0.0020032051282051276
825 665 0.0033386752136752118
825 666 -0.0068376068376068359
825 667 3.2526065174565133e-19
825 668 0.013354700854700852
825 669 -0.026388888888888889
825 670 0.0020032051282051276
825 671 0.0033386752136752131
825 672 -0.0068376068376068385
825 781 -0.00040064102564102546
825 782 -0.00066773504273504242
825 783 0.0050213675213675191
825 784 -8.6736173798840355e-19
825 785 -0.0026709401709401706
825 786 0.02200854700854701
825 787 0.00040064102564102568
825 788 -0.00066773504273504329
825 789 0.0050213675213675209
825 820 -0.0016025641025641027
825 821 -8.6736173798840355e-19
825 822 0.02542735042735042
825 823 -1.7347234759768071e-18
825 824 -5.2041704279304213e-18
825 825 0.10940170940170942
826 589 -0.0027866809116809093
826 590 -0.0010016025641025634
826 591 -0.0020032051282051276
826 592 -0.0077813390313390286
826 593 2.7105054312137611e-20
826 594 2.7105054312137611e-19
826 595 -0.0027866809116809102
826 596 0.0010016025641025636
826 597 0.0020032051282051272
826 628 -0.0084757834757834723
826 629 2.9815559743351372e-19
826 630 -0.0080128205128205104
826 631 -0.020441595441595448
826 632 2.1684043449710089e-19
826 633 1.7347234759768071e-18
826 634 -0.008475783475783474
826 635 -7.8604657505199071e-19
826 636 0.0080128205128205121
826 667 -0.0027866809116809102
826 668 0.0010016025641025636
826 669 -0.0020032051282051276
826 670 -0.0077813390313390312
826 671 -4.87890977618477e-19
826 672 3.2526065174565133e-19
826 673 -0.0027866809116809106
826 674 -0.0010016025641025634
826 675 0.0020032051282051276
826 784 -0.00023148148148148049
826 785 -0.0020032051282051267
826 786 0.00040064102564102584
826 787 0.0058048433048433039
826 788 -2.1684043449710089e-19
826 789 -8.6736173798840355e-19
826 790 -0.00023148148148148051
826 791 0.0020032051282051276
826 792 -0.00040064102564102568
826 823 0.0044159544159544156
826 824 -5.9631119486702744e-19
826 825 0.0016025641025641034
826 826 0.044586894586894577
827 589 -0.0010016025641025631
827 590 -0.0034989316239316206
827 591 -0.0033386752136752118
827 592 2.7105054312137611e-20
827 593 -0.013034188034188026
827 594 -0.013354700854700849
827 595 0.0010016025641025636
827 596 -0.003498931623931621
827 597 -0.0033386752136752122
827 628 2.7105054312137611e-19
827 629 -0.0046474358974358957
827 630 9.7578195523695399e-19
827 631 4.3368086899420177e-19
827 632 -0.014743589743589754
827 633 3.6862873864507151e-18
827 634 -7.0473141211557788e-19
827 635 -0.0046474358974358974
827 636 1.3010426069826053e-18
827 667 0.0010016025641025636
827 668 -0.0034989316239316223
827 669 0.0033386752136752122
827 670 -4.87890977618477e-19
827 671 -0.013034188034188033
827 672 0.013354700854700852
827 673 -0.0010016025641025636
827 674 -0.0034989316239316223
827 675 0.0033386752136752122
827 784 -0.0020032051282051267
827 785 -0.0016559829059829036
827 786 0.00066773504273504318
827 787 -5.9631119486702744e-19
827 788 -0.004700854700854698
827 789 0.0026709401709401693
827 790 0.0020032051282051276
827 791 -0.0016559829059829038
827 792 0.00066773504273504253
827 823 -2.1684043449710089e-19
827 824 0.012072649572649568
827 825 -8.6736173798840355e-19
827 826 1.3010426069826053e-18
827 827 0.055982905982905971
828 589 -0.0020032051282051272
828 590 -0.0033386752136752118
828 591 -0.0068376068376068324
828 592 1.0842021724855044e-19
828 593 -0.013354700854700851
828 594 -0.026388888888888885
828 595 0.0020032051282051272
828 596 -0.0033386752136752122
828 597 -0.0068376068376068341
828 628 -0.0080128205128205104
828 629 1.4094628242311558e-18
828 630 -0.024679487179487165
828 631 1.4094628242311558e-18
828 632 2.8189256484623115e-18
828 633 -0.094871794871794868
828 634 0.0080128205128205086
828 635 1.951563910473908e-18
828 636 -0.024679487179487172
828 667 -0.0020032051282051272
828 668 0.0033386752136752118
828 669 -0.0068376068376068333
828 670 2.7105054312137611e-19
828 671 0.013354700854700852
828 672 -0.026388888888888892
828 673 0.0020032051282051276
828 674 0.0033386752136752122
828 675 -0.0068376068376068359
828 784 -0.00040064102564102514
828 785 -0.00066773504273504188
828 786 0.0050213675213675217
828 787 -8.6736173798840355e-19
828 788 -0.0026709401709401719
828 789 0.022008547008547007
828 790 0.00040064102564102552
828 791 -0.0006677350427350421
828 792 0.00502136752136752
828 823 -0.0016025641025641014
828 824 -1.3010426069826053e-18
828 825 0.025427350427350427
828 826 -8.6736173798840355e-19
828 827 -3.4694469519536142e-18
828 828 0.10940170940170937
829 592 -0.0027866809116809102
829 593 -0.0010016025641025634
829 594 -0.0020032051282051272
829 595 -0.0077813390313390277
829 596 0
829 597 2.1684043449710089e-19
829 598 -0.0027866809116809102
829 599 0.0010016025641025634
829 600 0.0020032051282051272
829 631 -0.0084757834757834757
829 632 0
829 633 -0.0080128205128205121
829 634 -0.020441595441595441
829 635 0
829 636 9.7578195523695399e-19
829 637 -0.0084757834757834757
829 638 -7.3183646642771549e-19
829 639 0.0080128205128205121
829 670 -0.0027866809116809115
829 671 0.0010016025641025636
829 672 -0.0020032051282051276
829 673 -0.0077813390313390303
829 674 -4.0657581468206416e-19
829 675 4.3368086899420177e-19
829 676 -0.0027866809116809106
829 677 -0.0010016025641025634
829 678 0.0020032051282051276
829 787 -0.00023148148148148081
829 788 -0.0020032051282051272
829 789 0.00040064102564102552
829 790 0.0058048433048433039
829 791 -3.2526065174565133e-19
829 792 -4.3368086899420177e-19
829 793 -0.00023148148148148084
829 794 0.0020032051282051276
829 795 -0.00040064102564102552
829 826 0.0044159544159544147
829 827 -7.0473141211557788e-19
829 828 0.0016025641025641016
829 829 0.044586894586894583
830 592 -0.0010016025641025631
830 593 -0.0034989316239316219
830 594 -0.0033386752136752127
830 595 2.7105054312137611e-20
830 596 -0.013034188034188024
830 597 -0.013354700854700845
830 598 0.0010016025641025636
830 599 -0.0034989316239316202
830 600 -0.0033386752136752105
830 631 1.6263032587282567e-19
830 632 -0.0046474358974359
830 633 2.1684043449710089e-19
830 634 4.3368086899420177e-19
830 635 -0.014743589743589754
830 636 3.0357660829594124e-18
830 637 -6.5052130349130266e-19
830 638 -0.0046474358974358991
830 639 6.5052130349130266e-19
830 670 0.0010016025641025634
830 671 -0.0034989316239316228
830 672 0.0033386752136752118
830 673 -5.1499603193061461e-19
830 674 -0.01303418803418803
830 675 0.013354700854700849
830 676 -0.0010016025641025634
830 677 -0.0034989316239316219
830 678 0.0033386752136752109
830 787 -0.0020032051282051272
830 788 -0.0016559829059829044
830 789 0.0006677350427350421
830 790 -5.4210108624275222e-19
830 791 -0.0047008547008546946
830 792 0.0026709401709401693
830 793 0.0020032051282051272
830 794 -0.0016559829059829034
830 795 0.00066773504273504166
830 826 -2.1684043449710089e-19
830 827 0.012072649572649568
830 828 1.3010426069826053e-18
830 829 1.7347234759768071e-18
830 830 0.055982905982905964
831 592 -0.0020032051282051272
831 593 -0.0033386752136752127
831 594 -0.006837606837606835
831 595 1.0842021724855044e-19
831 596 -0.013354700854700847
831 597 -0.026388888888888878
831 598 0.0020032051282051276
831 599 -0.0033386752136752109
831 600 -0.0068376068376068333
831 631 -0.0080128205128205104
831 632 6.5052130349130266e-19
831 633 -0.024679487179487182
831 634 1.3010426069826053e-18
831 635 4.1199682554449168e-18
831 636 -0.094871794871794868
831 637 0.0080128205128205104
831 638 6.5052130349130266e-19
831 639 -0.024679487179487172
831 670 -0.0020032051282051272
831 671 0.0033386752136752122
831 672 -0.0068376068376068367
831 673 3.7947076036992655e-19
831 674 0.013354700854700849
831 675 -0.026388888888888885
831 676 0.0020032051282051276
831 677 0.0033386752136752109
831 678 -0.006837606837606835
831 787 -0.00040064102564102546
831 788 -0.00066773504273504286
831 789 0.00502136752136752
831 790 -4.3368086899420177e-19
831 791 -0.0026709401709401701
831 792 0.022008547008547007
831 793 0.00040064102564102541
831 794 -0.00066773504273504318
831 795 0.00502136752136752
831 826 -0.0016025641025641025
831 827 8.6736173798840355e-19
831 828 0.02542735042735042
831 829 -1.7347234759768071e-18
831 830 -6.0715321659188248e-18
831 831 0.10940170940170939
832 595 -0.0027866809116809093
832 596 -0.0010016025641025631
832 597 -0.0020032051282051276
832 598 -0.0077813390313390303
832 599 -5.4210108624275222e-20
832 600 2.1684043449710089e-19
832 601 -0.0027866809116809106
832 602 0.0010016025641025634
832 603 0.0020032051282051276
832 634 -0.0084757834757834723
832 635 2.9815559743351372e-19
832 636 -0.0080128205128205104
832 637 -0.020441595441595455
832 638 4.3368086899420177e-19
832 639 1.1926223897340549e-18
832 640 -0.0084757834757834757
832 641 -9.4867690092481638e-19
832 642 0.0080128205128205121
832 673 -0.0027866809116809097
832 674 0.0010016025641025636
832 675 -0.0020032051282051267
832 676 -0.0077813390313390338
832 677 -4.6078592330633938e-19
832 678 2.1684043449710089e-19
832 679 -0.0027866809116809115
832 680 -0.0010016025641025634
832 681 0.0020032051282051276
832 790 -0.00023148148148148106
832 791 -0.0020032051282051267
832 792 0.00040064102564102574
832 793 0.0058048433048433039
832 794 -3.7947076036992655e-19
832 795 -4.3368086899420177e-19
832 796 -0.00023148148148147897
832 797 0.0020032051282051276
832 798 -0.00040064102564102579
832 829 0.004415954415954413
832 830 -5.4210108624275222e-19
832 831 0.0016025641025641025
832 832 0.044586894586894583
833 595 -0.0010016025641025631
833 596 -0.0034989316239316206
833 597 -0.0033386752136752105
833 598 -8.1315162936412833e-20
833 599 -0.01303418803418803
833 600 -0.013354700854700851
833 601 0.0010016025641025636
833 602 -0.0034989316239316223
833 603 -0.0033386752136752135
833 634 2.9815559743351372e-19
833 635 -0.0046474358974358965
833 636 7.589415207398531e-19
833 637 4.3368086899420177e-19
833 638 -0.014743589743589759
833 639 1.3010426069826053e-18
833 640 -8.9446679230054116e-19
833 641 -0.0046474358974359
833 642 1.7347234759768071e-18
833 673 0.0010016025641025634
833 674 -0.003498931623931621
833 675 0.0033386752136752109
833 676 -5.1499603193061461e-19
833 677 -0.013034188034188033
833 678 0.013354700854700854
833 679 -0.0010016025641025634
833 680 -0.0034989316239316245
833 681 0.0033386752136752144
833 790 -0.0020032051282051267
833 791 -0.0016559829059829034
833 792 0.0006677350427350421
833 793 -5.4210108624275222e-19
833 794 -0.004700854700854698
833 795 0.0026709401709401701
833 796 0.0020032051282051272
833 797 -0.0016559829059829034
833 798 0.00066773504273504318
833 829 -4.3368086899420177e-19
833 830 0.012072649572649564
833 831 0
833 832 1.7347234759768071e-18
833 833 0.055982905982905978
834 595 -0.0020032051282051272
834 596 -0.0033386752136752105
834 597 -0.0068376068376068307
834 598 1.6263032587282567e-19
834 599 -0.013354700854700849
834 600 -0.026388888888888889
834 601 0.0020032051282051276
834 602 -0.0033386752136752135
834 603 -0.0068376068376068359
834 634 -0.0080128205128205104
834 635 6.5052130349130266e-19
834 636 -0.024679487179487161
834 637 9.7578195523695399e-19
834 638 4.3368086899420177e-19
834 639 -0.094871794871794896
834 640 0.0080128205128205104
834 641 2.7105054312137611e-18
834 642 -0.024679487179487182
834 673 -0.0020032051282051272
834 674 0.0033386752136752109
834 675 -0.0068376068376068324
834 676 1.6263032587282567e-19
834 677 0.013354700854700854
834 678 -0.026388888888888892
834 679 0.0020032051282051276
834 680 0.0033386752136752144
834 681 -0.0068376068376068385
834 790 -0.00040064102564102525
834 791 -0.00066773504273504231
834 792 0.00502136752136752
834 793 -4.3368086899420177e-19
834 794 -0.0026709401709401714
834 795 0.022008547008547007
834 796 0.00040064102564102525
834 797 -0.00066773504273504275
834 798 0.0050213675213675252
834 829 -0.0016025641025641019
834 830 -4.3368086899420177e-19
834 831 0.02542735042735042
834 832 -8.6736173798840355e-19
834 833 -8.6736173798840355e-18
834 834 0.1094017094017094
835 598 -0.0027866809116809115
835 599 -0.0010016025641025631
835 600 -0.0020032051282051276
835 601 -0.0077813390313390303
835 602 -1.3552527156068805e-19
835 603 2.7105054312137611e-19
835 604 -0.0027866809116809102
835 605 0.0010016025641025636
835 606 0.0020032051282051272
835 637 -0.0084757834757834792
835 638 -2.7105054312137611e-20
835 639 -0.0080128205128205121
835 640 -0.020441595441595455
835 641 0
835 642 1.8431436932253575e-18
835 643 -0.0084757834757834757
835 644 -4.0657581468206416e-19
835 645 0.0080128205128205121
835 676 -0.0027866809116809119
835 677 0.0010016025641025636
835 678 -0.0020032051282051276
835 679 -0.0077813390313390329
835 680 -4.3368086899420177e-19
835 681 4.3368086899420177e-19
835 682 -0.0027866809116809102
835 683 -0.0010016025641025634
835 684 0.0020032051282051276
835 793 -0.00023148148148147962
835 794 -0.0020032051282051267
835 795 0.00040064102564102541
835 796 0.0058048433048433056
835 797 -3.2526065174565133e-19
835 798 0
835 799 -0.00023148148148148076
835 800 0.0020032051282051276
835 801 -0.00040064102564102568
835 832 0.0044159544159544234
835 833 -9.7578195523695399e-19
835 834 0.0016025641025641016
835 835 0.04458689458689459
836 598 -0.0010016025641025631
836 599 -0.0034989316239316241
836 600 -0.0033386752136752144
836 601 2.7105054312137611e-20
836 602 -0.01303418803418803
836 603 -0.013354700854700849
836 604 0.0010016025641025636
836 605 -0.0034989316239316219
836 606 -0.0033386752136752122
836 637 2.7105054312137611e-20
836 638 -0.0046474358974359035
836 639 -7.589415207398531e-19
836 640 -2.1684043449710089e-19
836 641 -0.014743589743589761
836 642 1.951563910473908e-18
836 643 -2.7105054312137611e-19
836 644 -0.0046474358974358983
836 645 -2.1684043449710089e-19
836 676 0.0010016025641025634
836 677 -0.0034989316239316241
836 678 0.003338675213675214
836 679 -5.9631119486702744e-19
836 680 -0.013034188034188035
836 681 0.013354700854700856
836 682 -0.0010016025641025634
836 683 -0.0034989316239316215
836 684 0.0033386752136752109
836 793 -0.0020032051282051272
836 794 -0.0016559829059829051
836 795 0.00066773504273504242
836 796 -5.4210108624275222e-19
836 797 -0.0047008547008546963
836 798 0.002670940170940171
836 799 0.0020032051282051272
836 800 -0.0016559829059829042
836 801 0.00066773504273504123
836 832 -7.0473141211557788e-19
836 833 0.012072649572649578
836 834 2.1684043449710089e-18
836 835 8.6736173798840355e-19
836 836 0.055982905982905978
837 598 -0.0020032051282051272
837 599 -0.0033386752136752144
837 600 -0.0068376068376068402
837 601 4.87890977618477e-19
837 602 -0.013354700854700851
837 603 -0.026388888888888885
837 604 0.0020032051282051272
837 605 -0.0033386752136752122
837 606 -0.0068376068376068341
837 637 -0.0080128205128205121
837 638 3.2526065174565133e-19
837 639 -0.024679487179487196
837 640 1.8431436932253575e-18
837 641 2.1684043449710089e-18
837 642 -0.094871794871794882
837 643 0.0080128205128205121
837 644 -3.2526065174565133e-19
837 645 -0.024679487179487175
837 676 -0.0020032051282051276
837 677 0.0033386752136752148
837 678 -0.0068376068376068419
837 679 5.9631119486702744e-19
837 680 0.013354700854700856
837 681 -0.026388888888888892
837 682 0.0020032051282051276
837 683 0.0033386752136752109
837 684 -0.0068376068376068341
837 793 -0.00040064102564102574
837 794 -0.00066773504273504362
837 795 0.0050213675213675243
837 796 0
837 797 -0.0026709401709401693
837 798 0.022008547008547014
837 799 0.00040064102564102541
837 800 -0.00066773504273504329
837 801 0.0050213675213675191
837 832 -0.0016025641025641034
837 833 1.3010426069826053e-18
837 834 0.025427350427350445
837 835 8.6736173798840355e-19
837 836 -9.540979117872439e-18
837 837 0.10940170940170943
838 601 -0.0027866809116809097
838 602 -0.0010016025641025631
838 603 -0.0020032051282051276
838 604 -0.007781339031339032
838 605 0
838 606 5.4210108624275222e-20
838 607 -0.0027866809116809115
838 608 0.0010016025641025634
838 609 0.0020032051282051276
838 640 -0.0084757834757834757
838 641 6.2341624917916505e-19
838 642 -0.0080128205128205086
838 643 -0.020441595441595455
838 644 6.5052130349130266e-19
838 645 -1.0842021724855044e-19
838 646 -0.0084757834757834809
838 647 -1.0570971181733668e-18
838 648 0.0080128205128205121
838 679 -0.0027866809116809106
838 680 0.0010016025641025636
838 681 -0.0020032051282051276
838 682 -0.0077813390313390338
838 683 -4.3368086899420177e-19
838 684 -5.4210108624275222e-20
838 685 -0.0027866809116809132
838 686 -0.0010016025641025636
838 687 0.0020032051282051276
838 796 -0.0002314814814814803
838 797 -0.0020032051282051267
838 798 0.00040064102564102552
838 799 0.0058048433048433065
838 800 -3.7947076036992655e-19
838 801 -1.3010426069826053e-18
838 802 -0.00023148148148147854
838 803 0.0020032051282051272
838 804 -0.00040064102564102498
838 835 0.0044159544159544147
838 836 -5.4210108624275222e-20
838 837 0.0016025641025641016
838 838 0.04458689458689459
839 601 -0.0010016025641025629
839 602 -0.0034989316239316206
839 603 -0.0033386752136752109
839 604 -2.7105054312137611e-20
839 605 -0.01303418803418803
839 606 -0.013354700854700852
839 607 0.0010016025641025636
839 608 -0.0034989316239316232
839 609 -0.0033386752136752131
839 640 6.5052130349130266e-19
839 641 -0.0046474358974358991
839 642 2.6020852139652106e-18
839 643 2.1684043449710089e-19
839 644 -0.014743589743589761
839 645 3.6862873864507151e-18
839 646 -9.2157184661267877e-19
839 647 -0.0046474358974359035
839 648 2.7105054312137611e-18
839 679 0.0010016025641025636
839 680 -0.0034989316239316228
839 681 0.0033386752136752118
839 682 -5.1499603193061461e-19
839 683 -0.013034188034188035
839 684 0.013354700854700854
839 685 -0.0010016025641025636
839 686 -0.0034989316239316258
839 687 0.0033386752136752153
839 796 -0.0020032051282051267
839 797 -0.0016559829059829023
839 798 0.00066773504273504123
839 799 -5.9631119486702744e-19
839 800 -0.0047008547008546954
839 801 0.0026709401709401675
839 802 0.0020032051282051267
839 803 -0.0016559829059829023
839 804 0.00066773504273504101
839 835 -5.4210108624275222e-20
839 836 0.012072649572649566
839 837 0
839 838 1.3010426069826053e-18
839 839 0.055982905982905978
840 601 -0.0020032051282051276
840 602 -0.0033386752136752114
840 603 -0.0068376068376068333
840 604 5.4210108624275222e-20
840 605 -0.013354700854700852
840 606 -0.026388888888888889
840 607 0.0020032051282051276
840 608 -0.0033386752136752135
840 609 -0.0068376068376068402
840 640 -0.0080128205128205121
840 641 3.5778671692021646e-18
840 642 -0.024679487179487172
840 643 0
840 644 2.3852447794681098e-18
840 645 -0.094871794871794896
840 646 0.0080128205128205121
840 647 2.3852447794681098e-18
840 648 -0.024679487179487199
840 679 -0.0020032051282051272
840 680 0.0033386752136752118
840 681 -0.006837606837606835
840 682 5.4210108624275222e-20
840 683 0.013354700854700852
840 684 -0.026388888888888892
840 685 0.002003205128205128
840 686 0.0033386752136752153
840 687 -0.0068376068376068437
840 796 -0.00040064102564102546
840 797 -0.00066773504273504362
840 798 0.0050213675213675209
840 799 -8.6736173798840355e-19
840 800 -0.0026709401709401732
840 801 0.022008547008547014
840 802 0.00040064102564102584
840 803 -0.00066773504273504448
840 804 0.0050213675213675252
840 835 -0.0016025641025641025
840 836 8.6736173798840355e-19
840 837 0.02542735042735042
840 838 -2.6020852139652106e-18
840 839 -4.3368086899420177e-18
840 840 0.10940170940170942
841 604 -0.0027866809116809102
841 605 -0.0010016025641025634
841 606 -0.0020032051282051267
841 607 -0.0077813390313390251
841 608 -1.8973538018496328e-19
841 609 1.6263032587282567e-19
841 610 -0.002786680911680908
841 611 0.0010016025641025636
841 612 0.0020032051282051272
841 643 -0.0084757834757834723
841 644 -2.7105054312137611e-20
841 645 -0.0080128205128205086
841 646 -0.020441595441595441
841 647 -4.3368086899420177e-19
841 648 1.3010426069826053e-18
841 649 -0.0084757834757834688
841 650 2.439454888092385e-19
841 651 0.0080128205128205121
841 682 -0.0027866809116809106
841 683 0.0010016025641025636
841 684 -0.0020032051282051272
841 685 -0.0077813390313390286
841 686 -5.6920614055488983e-19
841 687 3.7947076036992655e-19
841 688 -0.0027866809116809076
841 689 -0.0010016025641025631
841 690 0.0020032051282051272
841 799 -0.00023148148148147943
841 800 -0.0020032051282051272
841 801 0.00040064102564102595
841 802 0.0058048433048433004
841 803 -8.6736173798840355e-19
841 804 -8.6736173798840355e-19
841 805 -0.00023148148148148295
841 806 0.002003205128205128
841 807 -0.00040064102564102601
841 838 0.0044159544159544243
841 839 -1.3552527156068805e-18
841 840 0.0016025641025641042
841 841 0.044586894586894563
842 604 -0.0010016025641025631
842 605 -0.0034989316239316228
842 606 -0.0033386752136752131
842 607 0
842 608 -0.013034188034188023
842 609 -0.013354700854700845
842 610 0.0010016025641025636
842 611 -0.0034989316239316184
842 612 -0.0033386752136752083
842 643 -1.8973538018496328e-19
842 644 -0.0046474358974358965
842 645 -1.0842021724855044e-18
842 646 0
842 647 -0.01474358974358975
842 648 2.1684043449710089e-19
842 649 3.2526065174565133e-19
842 650 -0.0046474358974358931
842 651 -4.6620693416876691e-18
842 682 0.0010016025641025634
842 683 -0.0034989316239316228
842 684 0.0033386752136752131
842 685 -6.2341624917916505e-19
842 686 -0.01303418803418803
842 687 0.013354700854700845
842 688 -0.0010016025641025629
842 689 -0.0034989316239316167
842 690 0.003338675213675207
842 799 -0.0020032051282051272
842 800 -0.0016559829059829051
842 801 0.00066773504273504372
842 802 -1.0299920638612292e-18
842 803 -0.0047008547008546963
842 804 0.0026709401709401684
842 805 0.0020032051282051276
842 806 -0.001655982905982906
842 807 0.00066773504273504416
842 838 -1.0299920638612292e-18
842 839 0.012072649572649578
842 840 -2.1684043449710089e-18
842 841 -8.6736173798840355e-19
842 842 0.055982905982905937
843 604 -0.0020032051282051272
843 605 -0.0033386752136752135
843 606 -0.0068376068376068341
843 607 0
843 608 -0.013354700854700845
843 609 -0.026388888888888871
843 610 0.0020032051282051272
843 611 -0.0033386752136752083
843 612 -0.0068376068376068263
843 643 -0.0080128205128205104
843 644 -1.1926223897340549e-18
843 645 -0.024679487179487175
843 646 1.5178830414797062e-18
843 647 3.903127820947816e-18
843 648 -0.094871794871794854
843 649 0.0080128205128205086
843 650 -3.903127820947816e-18
843 651 -0.02467948717948714
843 682 -0.0020032051282051272
843 683 0.0033386752136752131
843 684 -0.0068376068376068359
843 685 3.7947076036992655e-19
843 686 0.013354700854700845
843 687 -0.026388888888888878
843 688 0.0020032051282051276
843 689 0.0033386752136752079
843 690 -0.0068376068376068272
843 799 -0.00040064102564102492
843 800 -0.00066773504273504221
843 801 0.0050213675213675252
843 802 -1.3010426069826053e-18
843 803 -0.002670940170940168
843 804 0.022008547008546986
843 805 0.00040064102564102498
843 806 -0.00066773504273503982
843 807 0.0050213675213675165
843 838 -0.0016025641025641003
843 839 -2.1684043449710089e-18
843 840 0.025427350427350445
843 841 -1.7347234759768071e-18
843 842 3.4694469519536142e-18
843 843 0.10940170940170932
844 607 -0.0027866809116809089
844 608 -0.0010016025641025627
844 609 -0.0020032051282051276
844 610 -0.0077813390313390251
844 611 -4.87890977618477e-19
844 612 -2.1684043449710089e-19
844 613 -0.0027866809116809136
844 614 0.0010016025641025636
844 615 0.002003205128205128
844 646 -0.0084757834757834723
844 647 1.2197274440461925e-18
844 648 -0.0080128205128205121
844 649 -0.020441595441595437
844 650 -1.3010426069826053e-18
844 651 3.2526065174565133e-19
844 652 -0.0084757834757834844
844 653 0
844 654 0.0080128205128205121
844 685 -0.0027866809116809102
844 686 0.0010016025641025636
844 687 -0.0020032051282051276
844 688 -0.0077813390313390286
844 689 -8.9446679230054116e-19
844 690 0
844 691 -0.0027866809116809132
844 692 -0.0010016025641025631
844 693 0.002003205128205128
844 802 -0.00023148148148148057
844 803 -0.0020032051282051263
844 804 0.00040064102564102514
844 805 0.0058048433048433074
844 806 -1.5178830414797062e-18
844 807 -1.3010426069826053e-18
844 808 -0.0002314814814814822
844 809 0.0020032051282051276
844 810 -0.00040064102564102433
844 841 0.0044159544159544034
844 842 2.1684043449710089e-18
844 843 0.0016025641025641003
844 844 0.044586894586894583
845 607 -0.0010016025641025627
845 608 -0.0034989316239316171
845 609 -0.003338675213675207
845 610 -5.6920614055488983e-19
845 611 -0.013034188034188023
845 612 -0.013354700854700845
845 613 0.0010016025641025638
845 614 -0.0034989316239316254
845 615 -0.0033386752136752157
845 646 1.1655173354219173e-18
845 647 -0.0046474358974358983
845 648 4.5536491244391186e-18
845 649 -1.0842021724855044e-18
845 650 -0.014743589743589747
845 651 5.8546917314217239e-18
845 652 1.8973538018496328e-19
845 653 -0.0046474358974359087
845 654 -1.1926223897340549e-18
845 685 0.0010016025641025636
845 686 -0.0034989316239316219
845 687 0.0033386752136752109
845 688 -9.7578195523695399e-19
845 689 -0.013034188034188026
845 690 0.013354700854700844
845 691 -0.0010016025641025631
845 692 -0.0034989316239316249
845 693 0.0033386752136752135
845 802 -0.0020032051282051259
845 803 -0.0016559829059828971
845 804 0.00066773504273504188
845 805 -1.951563910473908e-18
845 806 -0.0047008547008546894
845 807 0.0026709401709401667
845 808 0.0020032051282051276
845 809 -0.0016559829059829086
845 810 0.00066773504273503765
845 841 2.2768245622195593e-18
845 842 0.012072649572649554
845 843 -3.0357660829594124e-18
845 844 -3.0357660829594124e-18
845 845 0.055982905982905964
846 607 -0.0020032051282051276
846 608 -0.0033386752136752075
846 609 -0.0068376068376068307
846 610 0
846 611 -0.013354700854700845
846 612 -0.026388888888888871
846 613 0.0020032051282051276
846 614 -0.0033386752136752157
846 615 -0.0068376068376068437
846 646 -0.0080128205128205121
846 647 5.2041704279304213e-18
846 648 -0.024679487179487161
846 649 -3.2526065174565133e-19
846 650 4.9873299934333204e-18
846 651 -0.09487179487179484
846 652 0.0080128205128205121
846 653 -7.589415207398531e-19
846 654 -0.02467948717948721
846 685 -0.0020032051282051276
846 686 0.0033386752136752105
846 687 -0.0068376068376068341
846 688 -1.6263032587282567e-19
846 689 0.013354700854700845
846 690 -0.026388888888888878
846 691 0.002003205128205128
846 692 0.0033386752136752122
846 693 -0.0068376068376068463
846 802 -0.0004006410256410259
846 803 -0.00066773504273504177
846 804 0.0050213675213675183
846 805 -1.3010426069826053e-18
846 806 -0.0026709401709401745
846 807 0.02200854700854701
846 808 0.00040064102564102655
846 809 -0.00066773504273504839
846 810 0.0050213675213675174
846 841 -0.0016025641025641038
846 842 8.6736173798840355e-19
846 843 0.025427350427350406
846 844 -4.3368086899420177e-18
846 845 0
846 846 0.1094017094017094
847 610 -0.0027866809116809076
847 611 -0.0010016025641025631
847 612 -0.0020032051282051267
847 613 -0.0077813390313390338
847 614 -5.4210108624275222e-20
847 615 1.6263032587282567e-19
847 616 -0.0027866809116809089
847 617 0.0010016025641025631
847 618 0.0020032051282051267
847 649 -0.0084757834757834653
847 650 1.111307226797642e-18
847 651 -0.0080128205128205086
847 652 -0.020441595441595461
847 653 4.3368086899420177e-19
847 654 1.0842021724855044e-18
847 655 -0.0084757834757834688
847 656 -1.4365678785432934e-18
847 657 0.0080128205128205086
847 688 -0.0027866809116809089
847 689 0.0010016025641025638
847 690 -0.0020032051282051267
847 691 -0.0077813390313390364
847 692 -4.0657581468206416e-19
847 693 1.0842021724855044e-19
847 694 -0.0027866809116809106
847 695 -0.0010016025641025636
847 696 0.0020032051282051272
847 805 -0.00023148148148148038
847 806 -0.0020032051282051263
847 807 0.00040064102564102666
847 808 0.0058048433048433021
847 809 -3.7947076036992655e-19
847 810 -8.6736173798840355e-19
847 811 -0.00023148148148147902
847 812 0.0020032051282051272
847 813 -0.00040064102564102655
847 844 0.0044159544159544147
847 845 1.1384122811097797e-18
847 846 0.0016025641025641064
847 847 0.044586894586894577
848 610 -0.0010016025641025629
848 611 -0.0034989316239316189
848 612 -0.0033386752136752118
848 613 -8.1315162936412833e-20
848 614 -0.013034188034188033
848 615 -0.013354700854700852
848 616 0.0010016025641025634
848 617 -0.0034989316239316202
848 618 -0.0033386752136752114
848 649 1.0570971181733668e-18
848 650 -0.0046474358974358896
848 651 7.1557343384043293e-18
848 652 4.3368086899420177e-19
848 653 -0.014743589743589762
848 654 -1.3010426069826053e-18
848 655 -1.3552527156068805e-18
848 656 -0.0046474358974358939
848 657 4.4452289071905682e-18
848 688 0.0010016025641025636
848 689 -0.0034989316239316223
848 690 0.0033386752136752118
848 691 -5.1499603193061461e-19
848 692 -0.013034188034188038
848 693 0.013354700854700863
848 694 -0.0010016025641025636
848 695 -0.0034989316239316249
848 696 0.0033386752136752144
848 805 -0.0020032051282051263
848 806 -0.0016559829059829031
848 807 0.0006677350427350421
848 808 -5.9631119486702744e-19
848 809 -0.0047008547008547015
848 810 0.0026709401709401736
848 811 0.0020032051282051267
848 812 -0.0016559829059829023
848 813 0.00066773504273504481
848 844 1.5720931501039814e-18
848 845 0.012072649572649568
848 846 8.6736173798840355e-19
848 847 1.3010426069826053e-18
848 848 0.055982905982905985
849 610 -0.0020032051282051267
849 611 -0.0033386752136752109
849 612 -0.0068376068376068272
849 613 1.6263032587282567e-19
849 614 -0.013354700854700852
849 615 -0.026388888888888892
849 616 0.0020032051282051267
849 617 -0.0033386752136752109
849 618 -0.0068376068376068324
849 649 -0.0080128205128205086
849 650 5.5294310796760726e-18
849 651 -0.024679487179487144
849 652 1.5178830414797062e-18
849 653 -3.4694469519536142e-18
849 654 -0.094871794871794923
849 655 0.0080128205128205086
849 656 3.903127820947816e-18
849 657 -0.024679487179487168
849 688 -0.0020032051282051267
849 689 0.0033386752136752118
849 690 -0.0068376068376068289
849 691 2.7105054312137611e-19
849 692 0.013354700854700861
849 693 -0.026388888888888899
849 694 0.0020032051282051272
849 695 0.0033386752136752148
849 696 -0.0068376068376068341
849 805 -0.00040064102564102416
849 806 -0.00066773504273504123
849 807 0.0050213675213675191
849 808 -8.6736173798840355e-19
849 809 -0.0026709401709401693
849 810 0.022008547008547007
849 811 0.00040064102564102449
849 812 -0.00066773504273503928
849 813 0.0050213675213675235
849 844 -0.0016025641025640973
849 845 4.3368086899420177e-19
849 846 0.025427350427350413
849 847 -2.6020852139652106e-18
849 848 -1.9081958235744878e-17
849 849 0.1094017094017094
850 613 -0.0027866809116809132
850 614 -0.0010016025641025634
850 615 -0.002003205128205128
850 616 -0.0077813390313390268
850 617 1.3552527156068805e-19
850 618 6.5052130349130266e-19
850 619 -0.002786680911680908
850 620 0.0010016025641025634
850 621 0.0020032051282051272
850 652 -0.0084757834757834827
850 653 -6.7762635780344027e-19
850 654 -0.0080128205128205121
850 655 -0.020441595441595444
850 656 1.0842021724855044e-18
850 657 3.5778671692021646e-18
850 658 -0.0084757834757834688
850 659 -5.4210108624275222e-19
850 660 0.0080128205128205104
850 691 -0.0027866809116809132
850 692 0.0010016025641025634
850 693 -0.002003205128205128
850 694 -0.0077813390313390303
850 695 -3.2526065174565133e-19
850 696 1.0299920638612292e-18
850 697 -0.0027866809116809089
850 698 -0.0010016025641025636
850 699 0.0020032051282051276
850 808 -0.00023148148148148079
850 809 -0.0020032051282051272
850 810 0.00040064102564102471
850 811 0.0058048433048433047
850 812 0
850 813 4.3368086899420177e-19
850 814 -0.00023148148148148171
850 815 0.0020032051282051276
850 816 -0.00040064102564102574
850 847 0.0044159544159544217
850 848 -2.2768245622195593e-18
850 849 0.0016025641025640984
850 850 0.044586894586894577
851 613 -0.0010016025641025631
851 614 -0.0034989316239316262
851 615 -0.0033386752136752153
851 616 2.7105054312137611e-19
851 617 -0.013034188034188026
851 618 -0.013354700854700849
851 619 0.0010016025641025636
851 620 -0.0034989316239316184
851 621 -0.0033386752136752088
851 652 -6.7762635780344027e-19
851 653 -0.0046474358974359078
851 654 -5.3125906451789717e-18
851 655 8.6736173798840355e-19
851 656 -0.014743589743589754
851 657 7.589415207398531e-18
851 658 -5.1499603193061461e-19
851 659 -0.0046474358974358931
851 660 1.1926223897340549e-18
851 691 0.0010016025641025634
851 692 -0.0034989316239316249
851 693 0.0033386752136752153
851 694 -3.2526065174565133e-19
851 695 -0.01303418803418803
851 696 0.013354700854700847
851 697 -0.0010016025641025634
851 698 -0.0034989316239316189
851 699 0.0033386752136752088
851 808 -0.0020032051282051272
851 809 -0.0016559829059829083
851 810 0.00066773504273504199
851 811 -1.6263032587282567e-19
851 812 -0.0047008547008546946
851 813 0.0026709401709401641
851 814 0.0020032051282051272
851 815 -0.0016559829059829027
851 816 0.00066773504273504199
851 847 -1.8973538018496328e-18
851 848 0.012072649572649577
851 849 -2.6020852139652106e-18
851 850 3.0357660829594124e-18
851 851 0.055982905982905971
852 613 -0.0020032051282051276
852 614 -0.0033386752136752161
852 615 -0.0068376068376068445
852 616 4.87890977618477e-19
852 617 -0.013354700854700849
852 618 -0.026388888888888875
852 619 0.0020032051282051276
852 620 -0.0033386752136752088
852 621 -0.0068376068376068281
852 652 -0.0080128205128205121
852 653 -3.4694469519536142e-18
852 654 -0.024679487179487217
852 655 3.903127820947816e-18
852 656 9.9746599868666408e-18
852 657 -0.094871794871794854
852 658 0.0080128205128205104
852 659 2.7105054312137611e-18
852 660 -0.024679487179487147
852 691 -0.002003205128205128
852 692 0.0033386752136752144
852 693 -0.0068376068376068471
852 694 9.7578195523695399e-19
852 695 0.013354700854700847
852 696 -0.026388888888888885
852 697 0.0020032051282051276
852 698 0.0033386752136752083
852 699 -0.0068376068376068289
852 808 -0.00040064102564102628
852 809 -0.00066773504273504502
852 810 0.00502136752136752
852 811 4.3368086899420177e-19
852 812 -0.0026709401709401762
852 813 0.022008547008547007
852 814 0.00040064102564102514
852 815 -0.00066773504273504307
852 816 0.0050213675213675174
852 847 -0.0016025641025641055
852 848 -2.1684043449710089e-18
852 849 0.025427350427350434
852 850 1.7347234759768071e-18
852 851 1.3010426069826053e-17
852 852 0.1094017094017094
853 616 -0.0027866809116809093
853 617 -0.0010016025641025634
853 618 -0.0020032051282051276
853 619 -0.0077813390313390286
853 620 1.0842021724855044e-19
853 621 1.2468324983583301e-18
853 622 -0.002786680911680908
853 623 0.0010016025641025631
853 624 0.0020032051282051267
853 655 -0.0084757834757834723
853 656 2.1684043449710089e-19
853 657 -0.0080128205128205121
853 658 -0.020441595441595444
853 659 1.0842021724855044e-18
853 660 4.6620693416876691e-18
853 661 -0.0084757834757834671
853 662 -1.599198204416119e-18
853 663 0.0080128205128205086
853 694 -0.0027866809116809093
853 695 0.0010016025641025636
853 696 -0.002003205128205128
853 697 -0.0077813390313390312
853 698 -2.7105054312137611e-19
853 699 1.1384122811097797e-18
853 700 -0.0027866809116809097
853 701 -0.0010016025641025638
853 702 0.0020032051282051267
853 811 -0.00023148148148148203
853 812 -0.0020032051282051267
853 813 0.00040064102564102525
853 814 0.0058048433048433004
853 815 2.1684043449710089e-19
853 816 8.6736173798840355e-19
853 817 -0.00023148148148147767
853 818 0.0020032051282051267
853 819 -0.00040064102564102693
853 850 0.0044159544159544043
853 851 -6.5052130349130266e-19
853 852 0.0016025641025641019
853 853 0.04458689458689457
854 616 -0.0010016025641025631
854 617 -0.0034989316239316189
854 618 -0.0033386752136752096
854 619 2.1684043449710089e-19
854 620 -0.013034188034188026
854 621 -0.013354700854700847
854 622 0.0010016025641025631
854 623 -0.0034989316239316193
854 624 -0.0033386752136752118
854 655 2.1684043449710089e-19
854 656 -0.0046474358974358965
854 657 2.0599841277224584e-18
854 658 1.0842021724855044e-18
854 659 -0.014743589743589754
854 660 1.951563910473908e-18
854 661 -1.463672932855431e-18
854 662 -0.0046474358974358905
854 663 6.5052130349130266e-18
854 694 0.0010016025641025636
854 695 -0.0034989316239316202
854 696 0.0033386752136752088
854 697 -2.7105054312137611e-19
854 698 -0.01303418803418803
854 699 0.013354700854700852
854 700 -0.0010016025641025638
854 701 -0.0034989316239316236
854 702 0.0033386752136752148
854 811 -0.0020032051282051272
854 812 -0.0016559829059829027
854 813 0.00066773504273503971
854 814 5.4210108624275222e-20
854 815 -0.0047008547008546989
854 816 0.0026709401709401706
854 817 0.0020032051282051267
854 818 -0.0016559829059829005
854 819 0.000667735042735046
854 850 -3.2526065174565133e-19
854 851 0.012072649572649556
854 852 2.1684043449710089e-18
854 853 3.903127820947816e-18
854 854 0.055982905982905957
855 616 -0.0020032051282051276
855 617 -0.0033386752136752092
855 618 -0.0068376068376068315
855 619 1.0842021724855044e-18
855 620 -0.013354700854700845
855 621 -0.026388888888888878
855 622 0.0020032051282051263
855 623 -0.0033386752136752118
855 624 -0.0068376068376068298
855 655 -0.0080128205128205121
855 656 6.5052130349130266e-19
855 657 -0.024679487179487161
855 658 4.87890977618477e-18
855 659 2.1684043449710089e-18
855 660 -0.094871794871794882
855 661 0.0080128205128205069
855 662 4.9873299934333204e-18
855 663 -0.024679487179487154
855 694 -0.002003205128205128
855 695 0.0033386752136752092
855 696 -0.0068376068376068315
855 697 1.1926223897340549e-18
855 698 0.013354700854700852
855 699 -0.026388888888888885
855 700 0.0020032051282051267
855 701 0.003338675213675214
855 702 -0.0068376068376068333
855 811 -0.00040064102564102557
855 812 -0.00066773504273504307
855 813 0.0050213675213675174
855 814 8.6736173798840355e-19
855 815 -0.0026709401709401675
855 816 0.022008547008546993
855 817 0.00040064102564102416
855 818 -0.00066773504273503939
855 819 0.0050213675213675252
855 850 -0.0016025641025641032
855 851 -4.3368086899420177e-19
855 852 0.025427350427350406
855 853 4.3368086899420177e-18
855 854 -1.5612511283791264e-17
855 855 0.10940170940170935
856 619 -0.0027866809116809141
856 620 -0.0010016025641025634
856 621 -0.0020032051282051276
856 622 -0.0038906695156695177
856 623 -0.00020032051282051235
856 624 -0.00040064102564102465
856 658 -0.0084757834757834896
856 659 -6.7762635780344027e-19
856 660 -0.0080128205128205121
856 661 -0.010220797720797734
856 662 1.0842021724855044e-18
856 663 -0.0016025641025640986
856 697 -0.0027866809116809141
856 698 0.0010016025641025634
856 699 -0.002003205128205128
856 700 -0.0038906695156695199
856 701 0.00020032051282051276
856 702 -0.00040064102564102433
856 814 -0.00023148148148148054
856 815 -0.0020032051282051276
856 816 0.00040064102564102443
856 817 0.002902421652421655
856 818 -0.00040064102564102498
856 819 0.0020032051282051285
856 853 0.0044159544159544269
856 854 -3.3610267347050637e-18
856 855 0.0016025641025640969
856 856 0.022293447293447313
857 619 -0.0010016025641025631
857 620 -0.003498931623931628
857 621 -0.0033386752136752179
857 622 0.00020032051282051292
857 623 -0.0065170940170940182
857 624 -0.0066773504273504305
857 658 -7.8604657505199071e-19
857 659 -0.0046474358974359113
857 660 -4.0115480381963664e-18
857 661 1.0842021724855044e-18
857 662 -0.0073717948717948838
857 663 6.5052130349130266e-19
857 697 0.0010016025641025634
857 698 -0.0034989316239316262
857 699 0.0033386752136752153
857 700 -0.00020032051282051268
857 701 -0.0065170940170940217
857 702 0.0066773504273504296
857 814 -0.0020032051282051276
857 815 -0.0016559829059829099
857 816 0.00066773504273503982
857 817 0.0004006410256410259
857 818 -0.0023504273504273486
857 819 0.0013354700854700887
857 853 -2.927345865710862e-18
857 854 0.012072649572649578
857 855 -2.1684043449710089e-18
857 856 2.6020852139652106e-18
857 857 0.027991452991453017
858 619 -0.0020032051282051276
858 620 -0.003338675213675217
858 621 -0.0068376068376068497
858 622 0.00040064102564102617
858 623 -0.0066773504273504314
858 624 -0.013194444444444451
858 658 -0.0080128205128205138
858 659 -3.903127820947816e-18
858 660 -0.024679487179487231
858 661 0.001602564102564106
858 662 4.1199682554449168e-18
858 663 -0.047435897435897476
858 697 -0.0020032051282051285
858 698 0.0033386752136752148
858 699 -0.0068376068376068506
858 700 0.00040064102564102655
858 701 0.0066773504273504305
858 702 -0.013194444444444457
858 814 -0.00040064102564102682
858 815 -0.00066773504273504687
858 816 0.0050213675213675235
858 817 0.002003205128205128
858 818 -0.0013354700854700853
858 819 0.011004273504273521
858 853 -0.0016025641025641073
858 854 -4.7704895589362195e-18
858 855 0.025427350427350445
858 856 0.0080128205128205156
858 857 5.2041704279304213e-18
858 858 0.054700854700854784
859 625 -0.003890669515669513
859 626 0.00020032051282051254
859 627 0.00040064102564102552
859 628 -0.0027866809116809102
859 629 0.0010016025641025634
859 630 0.0020032051282051276
859 664 -0.010220797720797727
859 665 0
859 666 0.0016025641025641027
859 667 -0.0084757834757834792
859 668 -6.7762635780344027e-19
859 669 0.0080128205128205121
859 703 -0.0038906695156695156
859 704 -0.00020032051282051287
859 705 0.00040064102564102541
859 706 -0.0027866809116809115
859 707 -0.0010016025641025634
859 708 0.002003205128205128
859 820 0.0029024216524216528
859 821 0.00040064102564102503
859 822 -0.0020032051282051276
859 823 -0.00023148148148148073
859 824 0.0020032051282051272
859 825 -0.00040064102564102584
859 859 0.022293447293447295
860 625 -0.00020032051282051268
860 626 -0.0065170940170940122
860 627 -0.0066773504273504227
860 628 0.0010016025641025636
860 629 -0.0034989316239316206
860 630 -0.0033386752136752118
860 664 2.1684043449710089e-19
860 665 -0.0073717948717948812
860 666 6.5052130349130266e-19
860 667 -6.7762635780344027e-19
860 668 -0.0046474358974359017
860 669 3.2526065174565133e-19
860 703 0.00020032051282051246
860 704 -0.0065170940170940148
860 705 0.0066773504273504236
860 706 -0.0010016025641025634
860 707 -0.0034989316239316232
860 708 0.0033386752136752127
860 820 -0.00040064102564102579
860 821 -0.0023504273504273468
860 822 0.0013354700854700844
860 823 0.0020032051282051272
860 824 -0.0016559829059829036
860 825 0.00066773504273504242
860 859 8.6736173798840355e-19
860 860 0.027991452991452979
861 625 -0.00040064102564102514
861 626 -0.0066773504273504236
861 627 -0.013194444444444439
861 628 0.0020032051282051272
861 629 -0.0033386752136752114
861 630 -0.0068376068376068333
861 664 -0.0016025641025641025
861 665 6.5052130349130266e-19
861 666 -0.047435897435897434
861 667 0.0080128205128205121
861 668 4.3368086899420177e-19
861 669 -0.024679487179487175
861 703 -0.00040064102564102584
861 704 0.0066773504273504244
861 705 -0.013194444444444446
861 706 0.002003205128205128
861 707 0.0033386752136752122
861 708 -0.0068376068376068376
861 820 -0.0020032051282051276
861 821 -0.0013354700854700853
861 822 0.011004273504273502
861 823 0.00040064102564102514
861 824 -0.00066773504273504231
861 825 0.00502136752136752
861 859 -0.0080128205128205121
861 860 -8.6736173798840355e-19
861 861 0.054700854700854701
862 625 -0.0027866809116809102
862 626 -0.0010016025641025631
862 627 -0.0020032051282051272
862 628 -0.0077813390313390277
862 629 2.7105054312137611e-20
862 630 3.2526065174565133e-19
862 631 -0.0027866809116809106
862 632 0.0010016025641025634
862 633 0.0020032051282051276
862 664 -0.0084757834757834757
862 665 2.1684043449710089e-19
862 666 -0.0080128205128205121
862 667 -0.020441595441595455
862 668 2.1684043449710089e-19
862 669 1.4094628242311558e-18
862 670 -0.0084757834757834792
862 671 -6.7762635780344027e-19
862 672 0.0080128205128205121
862 703 -0.0027866809116809115
862 704 0.0010016025641025636
862 705 -0.0020032051282051285
862 706 -0.0077813390313390338
862 707 -3.5236570605778894e-19
862 708 5.4210108624275222e-20
862 709 -0.0027866809116809123
862 710 -0.0010016025641025634
862 711 0.0020032051282051285
862 820 -0.000231481481481481
862 821 -0.0020032051282051267
862 822 0.00040064102564102568
862 823 0.0058048433048433056
862 824 -6.5052130349130266e-19
862 825 -4.3368086899420177e-19
862 826 -0.00023148148148148035
862 827 0.0020032051282051276
862 828 -0.00040064102564102546
862 859 0.0044159544159544147
862 860 -8.1315162936412833e-19
862 861 0.0016025641025641025
862 862 0.04458689458689459
863 625 -0.0010016025641025631
863 626 -0.003498931623931621
863 627 -0.0033386752136752118
863 628 8.1315162936412833e-20
863 629 -0.013034188034188026
863 630 -0.013354700854700849
863 631 0.0010016025641025636
863 632 -0.0034989316239316215
863 633 -0.0033386752136752122
863 664 1.0842021724855044e-19
863 665 -0.0046474358974359009
863 666 3.2526065174565133e-19
863 667 4.3368086899420177e-19
863 668 -0.014743589743589764
863 669 2.3852447794681098e-18
863 670 -6.5052130349130266e-19
863 671 -0.0046474358974359035
863 672 6.5052130349130266e-19
863 703 0.0010016025641025636
863 704 -0.0034989316239316223
863 705 0.0033386752136752122
863 706 -4.3368086899420177e-19
863 707 -0.013034188034188033
863 708 0.013354700854700851
863 709 -0.0010016025641025634
863 710 -0.0034989316239316236
863 711 0.0033386752136752127
863 820 -0.0020032051282051267
863 821 -0.001655982905982904
863 822 0.00066773504273504242
863 823 -8.6736173798840355e-19
863 824 -0.0047008547008546946
863 825 0.002670940170940171
863 826 0.0020032051282051272
863 827 -0.0016559829059829036
863 828 0.00066773504273504188
863 859 -4.3368086899420177e-19
863 860 0.012072649572649566
863 861 -1.3010426069826053e-18
863 862 1.3010426069826053e-18
863 863 0.055982905982905964
864 625 -0.0020032051282051272
864 626 -0.0033386752136752118
864 627 -0.0068376068376068324
864 628 3.7947076036992655e-19
864 629 -0.013354700854700849
864 630 -0.026388888888888878
864 631 0.0020032051282051272
864 632 -0.0033386752136752122
864 633 -0.0068376068376068359
864 664 -0.0080128205128205121
864 665 4.3368086899420177e-19
864 666 -0.024679487179487182
864 667 1.7347234759768071e-18
864 668 3.2526065174565133e-18
864 669 -0.094871794871794896
864 670 0.0080128205128205121
864 671 1.0842021724855044e-18
864 672 -0.024679487179487189
864 703 -0.0020032051282051285
864 704 0.0033386752136752118
864 705 -0.0068376068376068385
864 706 1.0842021724855044e-19
864 707 0.013354700854700851
864 708 -0.026388888888888899
864 709 0.0020032051282051285
864 710 0.0033386752136752127
864 711 -0.0068376068376068411
864 820 -0.00040064102564102557
864 821 -0.00066773504273504231
864 822 0.00502136752136752
864 823 -8.6736173798840355e-19
864 824 -0.0026709401709401693
864 825 0.02200854700854701
864 826 0.00040064102564102552
864 827 -0.00066773504273504307
864 828 0.0050213675213675217
864 859 -0.0016025641025641025
864 860 -1.3010426069826053e-18
864 861 0.025427350427350424
864 862 0
864 863 -6.9388939039072284e-18
864 864 0.10940170940170943
865 628 -0.0027866809116809093
865 629 -0.0010016025641025634
865 630 -0.0020032051282051272
865 631 -0.0077813390313390286
865 632 2.7105054312137611e-20
865 633 5.9631119486702744e-19
865 634 -0.0027866809116809102
865 635 0.0010016025641025634
865 636 0.0020032051282051272
865 667 -0.0084757834757834757
865 668 2.9815559743351372e-19
865 669 -0.0080128205128205121
865 670 -0.020441595441595458
865 671 4.3368086899420177e-19
865 672 1.0842021724855044e-18
865 673 -0.0084757834757834775
865 674 -7.0473141211557788e-19
865 675 0.0080128205128205121
865 706 -0.002786680911680911
865 707 0.0010016025641025636
865 708 -0.0020032051282051285
865 709 -0.0077813390313390346
865 710 -3.2526065174565133e-19
865 711 5.4210108624275222e-20
865 712 -0.0027866809116809119
865 713 -0.0010016025641025636
865 714 0.0020032051282051285
865 823 -0.00023148148148148051
865 824 -0.0020032051282051267
865 825 0.00040064102564102606
865 826 0.0058048433048433039
865 827 -3.2526065174565133e-19
865 828 -8.6736173798840355e-19
865 829 -0.00023148148148148043
865 830 0.0020032051282051276
865 831 -0.0004006410256410259
865 862 0.0044159544159544156
865 863 -7.589415207398531e-19
865 864 0.0016025641025641034
865 865 0.04458689458689459
866 628 -0.0010016025641025631
866 629 -0.003498931623931621
866 630 -0.0033386752136752114
866 631 2.7105054312137611e-20
866 632 -0.013034188034188026
866 633 -0.013354700854700849
866 634 0.0010016025641025636
866 635 -0.003498931623931621
866 636 -0.0033386752136752122
866 667 2.439454888092385e-19
866 668 -0.0046474358974358991
866 669 9.7578195523695399e-19
866 670 6.5052130349130266e-19
866 671 -0.014743589743589764
866 672 3.6862873864507151e-18
866 673 -5.6920614055488983e-19
866 674 -0.0046474358974359
866 675 1.0842021724855044e-18
866 706 0.0010016025641025634
866 707 -0.0034989316239316223
866 708 0.0033386752136752114
866 709 -3.5236570605778894e-19
866 710 -0.013034188034188033
866 711 0.013354700854700852
866 712 -0.0010016025641025634
866 713 -0.0034989316239316236
866 714 0.0033386752136752131
866 823 -0.0020032051282051267
866 824 -0.0016559829059829034
866 825 0.00066773504273504318
866 826 -6.5052130349130266e-19
866 827 -0.0047008547008546972
866 828 0.0026709401709401693
866 829 0.0020032051282051272
866 830 -0.0016559829059829036
866 831 0.00066773504273504286
866 862 -3.2526065174565133e-19
866 863 0.012072649572649568
866 864 -1.7347234759768071e-18
866 865 8.6736173798840355e-19
866 866 0.055982905982905971
867 628 -0.0020032051282051272
867 629 -0.0033386752136752118
867 630 -0.0068376068376068307
867 631 6.5052130349130266e-19
867 632 -0.013354700854700851
867 633 -0.026388888888888885
867 634 0.0020032051282051272
867 635 -0.0033386752136752122
867 636 -0.0068376068376068333
867 667 -0.0080128205128205121
867 668 1.3010426069826053e-18
867 669 -0.024679487179487175
867 670 9.7578195523695399e-19
867 671 2.8189256484623115e-18
867 672 -0.094871794871794909
867 673 0.0080128205128205121
867 674 1.6263032587282567e-18
867 675 -0.024679487179487182
867 706 -0.0020032051282051285
867 707 0.0033386752136752122
867 708 -0.0068376068376068376
867 709 0
867 710 0.013354700854700852
867 711 -0.026388888888888899
867 712 0.0020032051282051285
867 713 0.0033386752136752131
867 714 -0.0068376068376068402
867 823 -0.00040064102564102514
867 824 -0.00066773504273504177
867 825 0.0050213675213675217
867 826 -8.6736173798840355e-19
867 827 -0.0026709401709401719
867 828 0.022008547008547007
867 829 0.00040064102564102525
867 830 -0.0006677350427350421
867 831 0.0050213675213675209
867 862 -0.0016025641025641016
867 863 -1.7347234759768071e-18
867 864 0.025427350427350434
867 865 0
867 866 -5.2041704279304213e-18
867 867 0.10940170940170942
868 631 -0.0027866809116809106
868 632 -0.0010016025641025634
868 633 -0.0020032051282051276
868 634 -0.0077813390313390268
868 635 -5.4210108624275222e-20
868 636 5.4210108624275222e-19
868 637 -0.0027866809116809097
868 638 0.0010016025641025634
868 639 0.0020032051282051276
868 670 -0.0084757834757834792
868 671 1.3552527156068805e-19
868 672 -0.0080128205128205121
868 673 -0.020441595441595451
868 674 4.3368086899420177e-19
868 675 8.6736173798840355e-19
868 676 -0.0084757834757834775
868 677 -6.7762635780344027e-19
868 678 0.0080128205128205121
868 709 -0.0027866809116809123
868 710 0.0010016025641025636
868 711 -0.0020032051282051289
868 712 -0.0077813390313390338
868 713 -8.1315162936412833e-20
868 714 0
868 715 -0.0027866809116809115
868 716 -0.0010016025641025634
868 717 0.0020032051282051285
868 826 -0.00023148148148148084
868 827 -0.0020032051282051272
868 828 0.00040064102564102563
868 829 0.0058048433048433056
868 830 -5.4210108624275222e-19
868 831 -4.3368086899420177e-19
868 832 -0.00023148148148148092
868 833 0.0020032051282051276
868 834 -0.00040064102564102579
868 865 0.0044159544159544165
868 866 -5.9631119486702744e-19
868 867 0.0016025641025641021
868 868 0.04458689458689459
869 631 -0.0010016025641025631
869 632 -0.0034989316239316223
869 633 -0.0033386752136752127
869 634 5.4210108624275222e-20
869 635 -0.013034188034188023
869 636 -0.013354700854700845
869 637 0.0010016025641025636
869 638 -0.0034989316239316206
869 639 -0.0033386752136752109
869 670 1.8973538018496328e-19
869 671 -0.0046474358974359026
869 672 3.2526065174565133e-19
869 673 0
869 674 -0.014743589743589761
869 675 2.1684043449710089e-18
869 676 -5.9631119486702744e-19
869 677 -0.0046474358974359017
869 678 3.2526065174565133e-19
869 709 0.0010016025641025634
869 710 -0.0034989316239316236
869 711 0.0033386752136752131
869 712 -2.1684043449710089e-19
869 713 -0.013034188034188033
869 714 0.013354700854700849
869 715 -0.0010016025641025634
869 716 -0.0034989316239316223
869 717 0.0033386752136752114
869 826 -0.0020032051282051272
869 827 -0.001655982905982904
869 828 0.00066773504273504221
869 829 -6.5052130349130266e-19
869 830 -0.0047008547008546946
869 831 0.0026709401709401688
869 832 0.0020032051282051272
869 833 -0.0016559829059829034
869 834 0.00066773504273504188
869 865 -2.7105054312137611e-19
869 866 0.01207264957264957
869 867 0
869 868 8.6736173798840355e-19
869 869 0.055982905982905964
870 631 -0.0020032051282051272
870 632 -0.0033386752136752127
870 633 -0.0068376068376068359
870 634 5.9631119486702744e-19
870 635 -0.013354700854700847
870 636 -0.026388888888888875
870 637 0.0020032051282051272
870 638 -0.0033386752136752114
870 639 -0.0068376068376068324
870 670 -0.0080128205128205121
870 671 6.5052130349130266e-19
870 672 -0.024679487179487185
870 673 1.3010426069826053e-18
870 674 3.0357660829594124e-18
870 675 -0.094871794871794896
870 676 0.0080128205128205121
870 677 9.7578195523695399e-19
870 678 -0.024679487179487179
870 709 -0.0020032051282051285
870 710 0.0033386752136752131
870 711 -0.0068376068376068411
870 712 5.4210108624275222e-20
870 713 0.013354700854700849
870 714 -0.026388888888888899
870 715 0.0020032051282051285
870 716 0.0033386752136752114
870 717 -0.0068376068376068367
870 826 -0.00040064102564102546
870 827 -0.00066773504273504286
870 828 0.0050213675213675217
870 829 -8.6736173798840355e-19
870 830 -0.0026709401709401693
870 831 0.022008547008547007
870 832 0.0004006410256410253
870 833 -0.00066773504273504307
870 834 0.0050213675213675191
870 865 -0.0016025641025641025
870 866 0
870 867 0.025427350427350431
870 868 1.7347234759768071e-18
870 869 -6.9388939039072284e-18
870 870 0.1094017094017094
871 634 -0.0027866809116809089
871 635 -0.0010016025641025631
871 636 -0.0020032051282051272
871 637 -0.0077813390313390286
871 638 0
871 639 5.4210108624275222e-19
871 640 -0.0027866809116809102
871 641 0.0010016025641025634
871 642 0.0020032051282051272
871 673 -0.008475783475783474
871 674 2.9815559743351372e-19
871 675 -0.0080128205128205121
871 676 -0.020441595441595461
871 677 2.1684043449710089e-19
871 678 1.0842021724855044e-18
871 679 -0.0084757834757834792
871 680 -8.6736173798840355e-19
871 681 0.0080128205128205121
871 712 -0.0027866809116809106
871 713 0.0010016025641025636
871 714 -0.0020032051282051285
871 715 -0.0077813390313390355
871 716 -3.7947076036992655e-19
871 717 2.1684043449710089e-19
871 718 -0.0027866809116809123
871 719 -0.0010016025641025634
871 720 0.002003205128205128
871 829 -0.00023148148148148122
871 830 -0.0020032051282051267
871 831 0.00040064102564102595
871 832 0.0058048433048433039
871 833 -5.4210108624275222e-19
871 834 -8.6736173798840355e-19
871 835 -0.00023148148148147889
871 836 0.0020032051282051276
871 837 -0.00040064102564102595
871 868 0.0044159544159544139
871 869 -6.5052130349130266e-19
871 870 0.0016025641025641027
871 871 0.04458689458689459
872 634 -0.0010016025641025631
872 635 -0.0034989316239316197
872 636 -0.0033386752136752105
872 637 -5.4210108624275222e-20
872 638 -0.013034188034188026
872 639 -0.013354700854700849
872 640 0.0010016025641025636
872 641 -0.0034989316239316219
872 642 -0.0033386752136752131
872 673 2.439454888092385e-19
872 674 -0.0046474358974358991
872 675 4.3368086899420177e-19
872 676 4.3368086899420177e-19
872 677 -0.014743589743589768
872 678 1.3010426069826053e-18
872 679 -8.1315162936412833e-19
872 680 -0.0046474358974359017
872 681 1.3010426069826053e-18
872 712 0.0010016025641025634
872 713 -0.0034989316239316219
872 714 0.0033386752136752109
872 715 -3.5236570605778894e-19
872 716 -0.013034188034188036
872 717 0.013354700854700856
872 718 -0.0010016025641025636
872 719 -0.0034989316239316249
872 720 0.0033386752136752144
872 829 -0.0020032051282051267
872 830 -0.0016559829059829036
872 831 0.00066773504273504231
872 832 -7.589415207398531e-19
872 833 -0.004700854700854698
872 834 0.0026709401709401701
872 835 0.0020032051282051272
872 836 -0.0016559829059829034
872 837 0.00066773504273504351
872 868 -3.2526065174565133e-19
872 869 0.012072649572649564
872 870 -4.3368086899420177e-19
872 871 1.3010426069826053e-18
872 872 0.055982905982905971
873 634 -0.0020032051282051272
873 635 -0.0033386752136752105
873 636 -0.0068376068376068307
873 637 4.87890977618477e-19
873 638 -0.013354700854700849
873 639 -0.026388888888888885
873 640 0.0020032051282051272
873 641 -0.0033386752136752131
873 642 -0.0068376068376068359
873 673 -0.0080128205128205121
873 674 6.5052130349130266e-19
873 675 -0.024679487179487172
873 676 1.4094628242311558e-18
873 677 1.0842021724855044e-18
873 678 -0.094871794871794909
873 679 0.0080128205128205121
873 680 2.1684043449710089e-18
873 681 -0.024679487179487189
873 712 -0.0020032051282051285
873 713 0.0033386752136752105
873 714 -0.006837606837606835
873 715 5.4210108624275222e-20
873 716 0.013354700854700854
873 717 -0.026388888888888906
873 718 0.002003205128205128
873 719 0.0033386752136752144
873 720 -0.0068376068376068411
873 829 -0.00040064102564102519
873 830 -0.00066773504273504221
873 831 0.00502136752136752
873 832 -4.3368086899420177e-19
873 833 -0.002670940170940171
873 834 0.022008547008547007
873 835 0.00040064102564102509
873 836 -0.00066773504273504231
873 837 0.0050213675213675252
873 868 -0.0016025641025641021
873 869 -8.6736173798840355e-19
873 870 0.02542735042735042
873 871 8.6736173798840355e-19
873 872 -1.0408340855860843e-17
873 873 0.10940170940170943
874 637 -0.002786680911680911
874 638 -0.0010016025641025631
874 639 -0.0020032051282051276
874 640 -0.0077813390313390294
874 641 -1.0842021724855044e-19
874 642 4.87890977618477e-19
874 643 -0.0027866809116809097
874 644 0.0010016025641025636
874 645 0.0020032051282051272
874 676 -0.0084757834757834809
874 677 -1.3552527156068805e-19
874 678 -0.0080128205128205138
874 679 -0.020441595441595458
874 680 2.1684043449710089e-19
874 681 1.0842021724855044e-18
874 682 -0.0084757834757834775
874 683 -4.3368086899420177e-19
874 684 0.0080128205128205121
874 715 -0.0027866809116809136
874 716 0.0010016025641025636
874 717 -0.0020032051282051289
874 718 -0.0077813390313390355
874 719 -2.7105054312137611e-19
874 720 2.1684043449710089e-19
874 721 -0.002786680911680911
874 722 -0.0010016025641025631
874 723 0.002003205128205128
874 832 -0.00023148148148147959
874 833 -0.0020032051282051272
874 834 0.00040064102564102563
874 835 0.0058048433048433056
874 836 -5.4210108624275222e-19
874 837 0
874 838 -0.00023148148148148081
874 839 0.0020032051282051276
874 840 -0.00040064102564102584
874 871 0.0044159544159544243
874 872 -1.0842021724855044e-18
874 873 0.0016025641025641021
874 874 0.04458689458689459
875 637 -0.0010016025641025631
875 638 -0.0034989316239316232
875 639 -0.0033386752136752144
875 640 0
875 641 -0.013034188034188028
875 642 -0.013354700854700849
875 643 0.0010016025641025636
875 644 -0.0034989316239316215
875 645 -0.0033386752136752122
875 676 2.7105054312137611e-20
875 677 -0.0046474358974359052
875 678 -8.6736173798840355e-19
875 679 -2.1684043449710089e-19
875 680 -0.014743589743589768
875 681 -6.5052130349130266e-19
875 682 -3.5236570605778894e-19
875 683 -0.0046474358974359009
875 684 -6.5052130349130266e-19
875 715 0.0010016025641025636
875 716 -0.0034989316239316245
875 717 0.0033386752136752144
875 718 -4.3368086899420177e-19
875 719 -0.013034188034188035
875 720 0.013354700854700854
875 721 -0.0010016025641025634
875 722 -0.0034989316239316223
875 723 0.0033386752136752105
875 832 -0.0020032051282051272
875 833 -0.0016559829059829051
875 834 0.00066773504273504275
875 835 -7.589415207398531e-19
875 836 -0.0047008547008546954
875 837 0.0026709401709401723
875 838 0.0020032051282051272
875 839 -0.001655982905982904
875 840 0.00066773504273504123
875 871 -8.6736173798840355e-19
875 872 0.012072649572649578
875 873 1.7347234759768071e-18
875 874 4.3368086899420177e-19
875 875 0.055982905982905978
876 637 -0.0020032051282051272
876 638 -0.003338675213675214
876 639 -0.0068376068376068385
876 640 9.2157184661267877e-19
876 641 -0.013354700854700849
876 642 -0.026388888888888885
876 643 0.0020032051282051272
876 644 -0.0033386752136752122
876 645 -0.0068376068376068341
876 676 -0.0080128205128205121
876 677 -1.0842021724855044e-19
876 678 -0.024679487179487199
876 679 1.8431436932253575e-18
876 680 1.3010426069826053e-18
876 681 -0.094871794871794909
876 682 0.0080128205128205121
876 683 -5.4210108624275222e-19
876 684 -0.024679487179487175
876 715 -0.0020032051282051289
876 716 0.003338675213675214
876 717 -0.0068376068376068445
876 718 3.7947076036992655e-19
876 719 0.013354700854700854
876 720 -0.026388888888888906
876 721 0.002003205128205128
876 722 0.0033386752136752118
876 723 -0.0068376068376068376
876 832 -0.00040064102564102557
876 833 -0.0006677350427350434
876 834 0.0050213675213675243
876 835 -4.3368086899420177e-19
876 836 -0.0026709401709401684
876 837 0.022008547008547014
876 838 0.00040064102564102514
876 839 -0.00066773504273504318
876 840 0.00502136752136752
876 871 -0.0016025641025641029
876 872 8.6736173798840355e-19
876 873 0.025427350427350448
876 874 8.6736173798840355e-19
876 875 -7.8062556418956319e-18
876 876 0.10940170940170943
877 640 -0.0027866809116809097
877 641 -0.0010016025641025631
877 642 -0.0020032051282051276
877 643 -0.0077813390313390303
877 644 -5.4210108624275222e-20
877 645 1.6263032587282567e-19
877 646 -0.0027866809116809115
877 647 0.0010016025641025634
877 648 0.0020032051282051276
877 679 -0.0084757834757834757
877 680 5.6920614055488983e-19
877 681 -0.0080128205128205121
877 682 -0.020441595441595461
877 683 6.5052130349130266e-19
877 684 4.3368086899420177e-19
877 685 -0.0084757834757834827
877 686 -1.0570971181733668e-18
877 687 0.0080128205128205138
877 718 -0.0027866809116809115
877 719 0.0010016025641025636
877 720 -0.002003205128205128
877 721 -0.0077813390313390355
877 722 -3.7947076036992655e-19
877 723 -2.1684043449710089e-19
877 724 -0.0027866809116809136
877 725 -0.0010016025641025636
877 726 0.0020032051282051285
877 835 -0.00023148148148148043
877 836 -0.0020032051282051267
877 837 0.00040064102564102574
877 838 0.0058048433048433065
877 839 -3.7947076036992655e-19
877 840 -1.3010426069826053e-18
877 841 -0.00023148148148147835
877 842 0.0020032051282051272
877 843 -0.00040064102564102525
877 874 0.0044159544159544147
877 875 -5.4210108624275222e-20
877 876 0.0016025641025641021
877 877 0.044586894586894597
878 640 -0.0010016025641025629
878 641 -0.0034989316239316202
878 642 -0.0033386752136752109
878 643 -2.7105054312137611e-20
878 644 -0.01303418803418803
878 645 -0.013354700854700851
878 646 0.0010016025641025636
878 647 -0.0034989316239316232
878 648 -0.0033386752136752127
878 679 5.1499603193061461e-19
878 680 -0.0046474358974359017
878 681 2.2768245622195593e-18
878 682 6.5052130349130266e-19
878 683 -0.014743589743589766
878 684 3.4694469519536142e-18
878 685 -1.0028870095490916e-18
878 686 -0.0046474358974359069
878 687 2.927345865710862e-18
878 718 0.0010016025641025636
878 719 -0.0034989316239316228
878 720 0.0033386752136752118
878 721 -3.7947076036992655e-19
878 722 -0.013034188034188035
878 723 0.013354700854700852
878 724 -0.0010016025641025636
878 725 -0.0034989316239316262
878 726 0.0033386752136752161
878 835 -0.0020032051282051267
878 836 -0.0016559829059829021
878 837 0.00066773504273504166
878 838 -5.9631119486702744e-19
878 839 -0.0047008547008546946
878 840 0.0026709401709401688
878 841 0.0020032051282051267
878 842 -0.0016559829059829021
878 843 0.00066773504273504123
878 874 2.7105054312137611e-19
878 875 0.012072649572649564
878 876 0
878 877 1.7347234759768071e-18
878 878 0.055982905982905978
879 640 -0.0020032051282051272
879 641 -0.0033386752136752114
879 642 -0.0068376068376068324
879 643 3.2526065174565133e-19
879 644 -0.013354700854700852
879 645 -0.026388888888888885
879 646 0.0020032051282051276
879 647 -0.0033386752136752135
879 648 -0.0068376068376068393
879 679 -0.0080128205128205121
879 680 3.2526065174565133e-18
879 681 -0.024679487179487175
879 682 7.589415207398531e-19
879 683 2.6020852139652106e-18
879 684 -0.094871794871794923
879 685 0.0080128205128205121
879 686 2.6020852139652106e-18
879 687 -0.024679487179487203
879 718 -0.002003205128205128
879 719 0.0033386752136752114
879 720 -0.0068376068376068376
879 721 -1.0842021724855044e-19
879 722 0.013354700854700854
879 723 -0.026388888888888903
879 724 0.0020032051282051285
879 725 0.0033386752136752157
879 726 -0.0068376068376068463
879 835 -0.00040064102564102536
879 836 -0.00066773504273504329
879 837 0.0050213675213675217
879 838 -1.3010426069826053e-18
879 839 -0.0026709401709401727
879 840 0.022008547008547014
879 841 0.00040064102564102574
879 842 -0.00066773504273504416
879 843 0.0050213675213675252
879 874 -0.0016025641025641029
879 875 1.3010426069826053e-18
879 876 0.025427350427350427
879 877 -1.7347234759768071e-18
879 878 -8.6736173798840355e-18
879 879 0.10940170940170944
880 643 -0.0027866809116809102
880 644 -0.0010016025641025634
880 645 -0.0020032051282051267
880 646 -0.0077813390313390242
880 647 -1.0842021724855044e-19
880 648 5.4210108624275222e-19
880 649 -0.002786680911680908
880 650 0.0010016025641025636
880 651 0.0020032051282051272
880 682 -0.0084757834757834757
880 683 -1.3552527156068805e-19
880 684 -0.0080128205128205104
880 685 -0.020441595441595444
880 686 -2.1684043449710089e-19
880 687 1.3010426069826053e-18
880 688 -0.0084757834757834688
880 689 1.6263032587282567e-19
880 690 0.0080128205128205121
880 721 -0.0027866809116809115
880 722 0.0010016025641025636
880 723 -0.0020032051282051285
880 724 -0.0077813390313390303
880 725 -5.1499603193061461e-19
880 726 3.2526065174565133e-19
880 727 -0.0027866809116809084
880 728 -0.0010016025641025631
880 729 0.0020032051282051276
880 838 -0.00023148148148147932
880 839 -0.0020032051282051272
880 840 0.00040064102564102612
880 841 0.0058048433048433021
880 842 -8.6736173798840355e-19
880 843 -8.6736173798840355e-19
880 844 -0.00023148148148148309
880 845 0.002003205128205128
880 846 -0.00040064102564102622
880 877 0.0044159544159544243
880 878 -1.7347234759768071e-18
880 879 0.0016025641025641047
880 880 0.04458689458689457
881 643 -0.0010016025641025631
881 644 -0.0034989316239316223
881 645 -0.0033386752136752131
881 646 2.7105054312137611e-20
881 647 -0.013034188034188019
881 648 -0.013354700854700845
881 649 0.0010016025641025636
881 650 -0.0034989316239316184
881 651 -0.0033386752136752079
881 682 -1.6263032587282567e-19
881 683 -0.0046474358974358983
881 684 -1.5178830414797062e-18
881 685 -2.1684043449710089e-19
881 686 -0.014743589743589757
881 687 4.3368086899420177e-19
881 688 3.5236570605778894e-19
881 689 -0.0046474358974358948
881 690 -4.5536491244391186e-18
881 721 0.0010016025641025634
881 722 -0.0034989316239316228
881 723 0.0033386752136752131
881 724 -5.4210108624275222e-19
881 725 -0.013034188034188028
881 726 0.013354700854700847
881 727 -0.0010016025641025631
881 728 -0.0034989316239316167
881 729 0.0033386752136752075
881 838 -0.0020032051282051272
881 839 -0.0016559829059829051
881 840 0.00066773504273504416
881 841 -9.2157184661267877e-19
881 842 -0.0047008547008546954
881 843 0.0026709401709401697
881 844 0.0020032051282051276
881 845 -0.0016559829059829062
881 846 0.00066773504273504416
881 877 -1.3010426069826053e-18
881 878 0.012072649572649578
881 879 -2.1684043449710089e-18
881 880 -8.6736173798840355e-19
881 881 0.055982905982905937
882 643 -0.0020032051282051267
882 644 -0.0033386752136752131
882 645 -0.0068376068376068333
882 646 5.4210108624275222e-19
882 647 -0.013354700854700844
882 648 -0.026388888888888871
882 649 0.0020032051282051272
882 650 -0.0033386752136752079
882 651 -0.0068376068376068255
882 682 -0.0080128205128205104
882 683 -1.6263032587282567e-18
882 684 -0.024679487179487175
882 685 9.7578195523695399e-19
882 686 2.8189256484623115e-18
882 687 -0.094871794871794868
882 688 0.0080128205128205104
882 689 -4.0115480381963664e-18
882 690 -0.024679487179487147
882 721 -0.0020032051282051285
882 722 0.0033386752136752131
882 723 -0.0068376068376068393
882 724 1.0842021724855044e-19
882 725 0.013354700854700845
882 726 -0.026388888888888889
882 727 0.0020032051282051276
882 728 0.0033386752136752079
882 729 -0.0068376068376068289
882 838 -0.00040064102564102487
882 839 -0.00066773504273504188
882 840 0.0050213675213675261
882 841 -8.6736173798840355e-19
882 842 -0.0026709401709401671
882 843 0.022008547008546986
882 844 0.00040064102564102487
882 845 -0.0006677350427350396
882 846 0.0050213675213675165
882 877 -0.0016025641025641001
882 878 -3.4694469519536142e-18
882 879 0.025427350427350448
882 880 0
882 881 1.7347234759768071e-18
882 882 0.10940170940170933
883 646 -0.002786680911680908
883 647 -0.0010016025641025627
883 648 -0.0020032051282051272
883 649 -0.0077813390313390234
883 650 -4.6078592330633938e-19
883 651 0
883 652 -0.0027866809116809136
883 653 0.0010016025641025636
883 654 0.0020032051282051276
883 685 -0.0084757834757834723
883 686 1.1655173354219173e-18
883 687 -0.0080128205128205121
883 688 -0.020441595441595441
883 689 -1.0842021724855044e-18
883 690 -8.6736173798840355e-19
883 691 -0.0084757834757834861
883 692 -2.7105054312137611e-20
883 693 0.0080128205128205156
883 724 -0.0027866809116809102
883 725 0.0010016025641025636
883 726 -0.0020032051282051285
883 727 -0.0077813390313390303
883 728 -8.9446679230054116e-19
883 729 -2.1684043449710089e-19
883 730 -0.0027866809116809145
883 731 -0.0010016025641025631
883 732 0.0020032051282051289
883 841 -0.00023148148148148068
883 842 -0.0020032051282051263
883 843 0.00040064102564102525
883 844 0.0058048433048433074
883 845 -1.7347234759768071e-18
883 846 -1.7347234759768071e-18
883 847 -0.00023148148148148214
883 848 0.0020032051282051276
883 849 -0.00040064102564102449
883 880 0.0044159544159544043
883 881 2.0057740190981832e-18
883 882 0.001602564102564101
883 883 0.04458689458689459
884 646 -0.0010016025641025627
884 647 -0.0034989316239316171
884 648 -0.0033386752136752066
884 649 -4.3368086899420177e-19
884 650 -0.013034188034188019
884 651 -0.013354700854700845
884 652 0.0010016025641025638
884 653 -0.0034989316239316254
884 654 -0.0033386752136752157
884 685 1.111307226797642e-18
884 686 -0.0046474358974359
884 687 4.3368086899420177e-18
884 688 -1.3010426069826053e-18
884 689 -0.014743589743589757
884 690 3.4694469519536142e-18
884 691 1.0842021724855044e-19
884 692 -0.0046474358974359121
884 693 -1.6263032587282567e-18
884 724 0.0010016025641025636
884 725 -0.0034989316239316219
884 726 0.0033386752136752105
884 727 -8.6736173798840355e-19
884 728 -0.013034188034188026
884 729 0.013354700854700844
884 730 -0.0010016025641025631
884 731 -0.0034989316239316249
884 732 0.003338675213675214
884 841 -0.0020032051282051259
884 842 -0.0016559829059828973
884 843 0.00066773504273504221
884 844 -2.0599841277224584e-18
884 845 -0.0047008547008546911
884 846 0.0026709401709401667
884 847 0.0020032051282051276
884 848 -0.0016559829059829086
884 849 0.00066773504273503776
884 880 2.1684043449710089e-18
884 881 0.012072649572649554
884 882 -3.4694469519536142e-18
884 883 -3.4694469519536142e-18
884 884 0.055982905982905964
885 646 -0.0020032051282051272
885 647 -0.0033386752136752066
885 648 -0.0068376068376068289
885 649 1.6263032587282567e-19
885 650 -0.013354700854700845
885 651 -0.026388888888888871
885 652 0.0020032051282051276
885 653 -0.0033386752136752157
885 654 -0.0068376068376068437
885 685 -0.0080128205128205121
885 686 5.4210108624275222e-18
885 687 -0.024679487179487168
885 688 -3.2526065174565133e-19
885 689 3.2526065174565133e-18
885 690 -0.094871794871794854
885 691 0.0080128205128205156
885 692 -1.3010426069826053e-18
885 693 -0.024679487179487224
885 724 -0.0020032051282051285
885 725 0.0033386752136752105
885 726 -0.006837606837606835
885 727 -3.7947076036992655e-19
885 728 0.013354700854700845
885 729 -0.026388888888888892
885 730 0.0020032051282051289
885 731 0.0033386752136752135
885 732 -0.0068376068376068489
885 841 -0.00040064102564102574
885 842 -0.00066773504273504145
885 843 0.0050213675213675183
885 844 -1.3010426069826053e-18
885 845 -0.0026709401709401736
885 846 0.02200854700854701
885 847 0.00040064102564102628
885 848 -0.00066773504273504828
885 849 0.0050213675213675165
885 880 -0.0016025641025641038
885 881 0
885 882 0.025427350427350406
885 883 -3.4694469519536142e-18
885 884 8.6736173798840355e-19
885 885 0.10940170940170943
886 649 -0.0027866809116809071
886 650 -0.0010016025641025629
886 651 -0.0020032051282051267
886 652 -0.0077813390313390329
886 653 0
886 654 3.2526065174565133e-19
886 655 -0.0027866809116809084
886 656 0.0010016025641025631
886 657 0.0020032051282051272
886 688 -0.0084757834757834688
886 689 9.7578195523695399e-19
886 690 -0.0080128205128205104
886 691 -0.020441595441595468
886 692 6.5052130349130266e-19
886 693 9.7578195523695399e-19
886 694 -0.0084757834757834723
886 695 -1.5449880957918438e-18
886 696 0.0080128205128205121
886 727 -0.0027866809116809102
886 728 0.0010016025641025638
886 729 -0.002003205128205128
886 730 -0.0077813390313390398
886 731 -2.9815559743351372e-19
886 732 1.0842021724855044e-19
886 733 -0.0027866809116809115
886 734 -0.0010016025641025636
886 735 0.002003205128205128
886 844 -0.00023148148148148049
886 845 -0.0020032051282051263
886 846 0.00040064102564102671
886 847 0.0058048433048433021
886 848 -5.4210108624275222e-19
886 849 -8.6736173798840355e-19
886 850 -0.00023148148148147878
886 851 0.0020032051282051272
886 852 -0.00040064102564102677
886 883 0.0044159544159544165
886 884 1.0842021724855044e-18
886 885 0.0016025641025641071
886 886 0.04458689458689459
887 649 -0.0010016025641025629
887 650 -0.0034989316239316184
887 651 -0.0033386752136752114
887 652 8.1315162936412833e-20
887 653 -0.013034188034188033
887 654 -0.013354700854700852
887 655 0.0010016025641025634
887 656 -0.0034989316239316206
887 657 -0.0033386752136752114
887 688 9.4867690092481638e-19
887 689 -0.0046474358974358931
887 690 6.9388939039072284e-18
887 691 4.3368086899420177e-19
887 692 -0.014743589743589773
887 693 -1.3010426069826053e-18
887 694 -1.4365678785432934e-18
887 695 -0.0046474358974358974
887 696 4.5536491244391186e-18
887 727 0.0010016025641025636
887 728 -0.0034989316239316232
887 729 0.0033386752136752127
887 730 -3.2526065174565133e-19
887 731 -0.01303418803418804
887 732 0.013354700854700863
887 733 -0.0010016025641025636
887 734 -0.0034989316239316254
887 735 0.0033386752136752153
887 844 -0.0020032051282051263
887 845 -0.0016559829059829029
887 846 0.00066773504273504231
887 847 -6.5052130349130266e-19
887 848 -0.0047008547008547015
887 849 0.0026709401709401732
887 850 0.0020032051282051267
887 851 -0.0016559829059829021
887 852 0.00066773504273504502
887 883 1.463672932855431e-18
887 884 0.012072649572649568
887 885 -4.3368086899420177e-19
887 886 0
887 887 0.055982905982905985
888 649 -0.0020032051282051267
888 650 -0.0033386752136752109
888 651 -0.0068376068376068263
888 652 4.3368086899420177e-19
888 653 -0.013354700854700852
888 654 -0.026388888888888892
888 655 0.0020032051282051267
888 656 -0.0033386752136752114
888 657 -0.0068376068376068315
888 688 -0.0080128205128205104
888 689 5.2041704279304213e-18
888 690 -0.024679487179487154
888 691 1.5178830414797062e-18
888 692 -3.2526065174565133e-18
888 693 -0.094871794871794951
888 694 0.0080128205128205121
888 695 4.1199682554449168e-18
888 696 -0.024679487179487175
888 727 -0.002003205128205128
888 728 0.0033386752136752122
888 729 -0.0068376068376068324
888 730 5.4210108624275222e-20
888 731 0.013354700854700863
888 732 -0.02638888888888892
888 733 0.002003205128205128
888 734 0.0033386752136752157
888 735 -0.0068376068376068376
888 844 -0.00040064102564102406
888 845 -0.00066773504273504123
888 846 0.0050213675213675183
888 847 -8.6736173798840355e-19
888 848 -0.0026709401709401688
888 849 0.022008547008547007
888 850 0.00040064102564102438
888 851 -0.00066773504273503917
888 852 0.0050213675213675235
888 883 -0.001602564102564098
888 884 0
888 885 0.02542735042735042
888 886 -8.6736173798840355e-19
888 887 -2.1684043449710089e-17
888 888 0.10940170940170943
889 652 -0.0027866809116809132
889 653 -0.0010016025641025634
889 654 -0.0020032051282051276
889 655 -0.0077813390313390268
889 656 1.3552527156068805e-19
889 657 1.0842021724855044e-18
889 658 -0.002786680911680908
889 659 0.0010016025641025634
889 660 0.0020032051282051272
889 691 -0.0084757834757834844
889 692 -5.6920614055488983e-19
889 693 -0.0080128205128205156
889 694 -0.020441595441595451
889 695 1.0842021724855044e-18
889 696 3.6862873864507151e-18
889 697 -0.0084757834757834705
889 698 -5.4210108624275222e-19
889 699 0.0080128205128205121
889 730 -0.0027866809116809141
889 731 0.0010016025641025636
889 732 -0.0020032051282051289
889 733 -0.0077813390313390338
889 734 -1.8973538018496328e-19
889 735 8.1315162936412833e-19
889 736 -0.0027866809116809097
889 737 -0.0010016025641025636
889 738 0.002003205128205128
889 847 -0.00023148148148148065
889 848 -0.0020032051282051272
889 849 0.00040064102564102476
889 850 0.0058048433048433056
889 851 -2.1684043449710089e-19
889 852 4.3368086899420177e-19
889 853 -0.00023148148148148173
889 854 0.0020032051282051276
889 855 -0.00040064102564102584
889 886 0.0044159544159544234
889 887 -2.439454888092385e-18
889 888 0.001602564102564099
889 889 0.04458689458689459
890 652 -0.0010016025641025631
890 653 -0.0034989316239316267
890 654 -0.0033386752136752153
890 655 2.9815559743351372e-19
890 656 -0.013034188034188023
890 657 -0.013354700854700851
890 658 0.0010016025641025634
890 659 -0.0034989316239316176
890 660 -0.0033386752136752088
890 691 -6.5052130349130266e-19
890 692 -0.0046474358974359104
890 693 -5.3125906451789717e-18
890 694 1.0842021724855044e-18
890 695 -0.014743589743589762
890 696 7.3725747729014302e-18
890 697 -5.4210108624275222e-19
890 698 -0.0046474358974358957
890 699 1.1926223897340549e-18
890 730 0.0010016025641025634
890 731 -0.0034989316239316254
890 732 0.0033386752136752153
890 733 -1.6263032587282567e-19
890 734 -0.013034188034188033
890 735 0.013354700854700845
890 736 -0.0010016025641025634
890 737 -0.0034989316239316197
890 738 0.0033386752136752088
890 847 -0.0020032051282051272
890 848 -0.0016559829059829079
890 849 0.0006677350427350421
890 850 -3.7947076036992655e-19
890 851 -0.0047008547008546937
890 852 0.0026709401709401641
890 853 0.0020032051282051272
890 854 -0.0016559829059829027
890 855 0.00066773504273504221
890 886 -2.0057740190981832e-18
890 887 0.012072649572649575
890 888 -3.903127820947816e-18
890 889 3.4694469519536142e-18
890 890 0.055982905982905971
891 652 -0.0020032051282051276
891 653 -0.0033386752136752161
891 654 -0.0068376068376068445
891 655 1.0299920638612292e-18
891 656 -0.013354700854700849
891 657 -0.026388888888888871
891 658 0.0020032051282051272
891 659 -0.0033386752136752088
891 660 -0.0068376068376068272
891 691 -0.0080128205128205138
891 692 -3.4694469519536142e-18
891 693 -0.024679487179487224
891 694 4.1199682554449168e-18
891 695 9.7578195523695399e-18
891 696 -0.094871794871794896
891 697 0.0080128205128205121
891 698 2.4936649967166602e-18
891 699 -0.024679487179487154
891 730 -0.0020032051282051289
891 731 0.0033386752136752148
891 732 -0.0068376068376068497
891 733 7.0473141211557788e-19
891 734 0.013354700854700849
891 735 -0.026388888888888899
891 736 0.0020032051282051285
891 737 0.0033386752136752083
891 738 -0.0068376068376068315
891 847 -0.00040064102564102622
891 848 -0.00066773504273504492
891 849 0.0050213675213675217
891 850 0
891 851 -0.0026709401709401758
891 852 0.022008547008547007
891 853 0.00040064102564102498
891 854 -0.00066773504273504296
891 855 0.0050213675213675183
891 886 -0.0016025641025641058
891 887 -3.0357660829594124e-18
891 888 0.025427350427350438
891 889 3.4694469519536142e-18
891 890 1.1275702593849246e-17
891 891 0.10940170940170943
892 655 -0.0027866809116809093
892 656 -0.0010016025641025631
892 657 -0.0020032051282051276
892 658 -0.0077813390313390268
892 659 1.0842021724855044e-19
892 660 1.3552527156068805e-18
892 661 -0.0027866809116809076
892 662 0.0010016025641025631
892 663 0.0020032051282051267
892 694 -0.0084757834757834757
892 695 2.9815559743351372e-19
892 696 -0.0080128205128205121
892 697 -0.020441595441595455
892 698 1.0842021724855044e-18
892 699 4.2283884726934673e-18
892 700 -0.0084757834757834705
892 701 -1.6805133673525319e-18
892 702 0.0080128205128205104
892 733 -0.0027866809116809106
892 734 0.0010016025641025636
892 735 -0.0020032051282051285
892 736 -0.0077813390313390346
892 737 -1.6263032587282567e-19
892 738 1.0299920638612292e-18
892 739 -0.0027866809116809115
892 740 -0.0010016025641025638
892 741 0.0020032051282051276
892 850 -0.00023148148148148203
892 851 -0.0020032051282051267
892 852 0.00040064102564102541
892 853 0.0058048433048433013
892 854 5.4210108624275222e-20
892 855 1.3010426069826053e-18
892 856 -0.00023148148148147748
892 857 0.0020032051282051267
892 858 -0.0004006410256410272
892 889 0.0044159544159544052
892 890 -7.0473141211557788e-19
892 891 0.0016025641025641023
892 892 0.044586894586894577
893 655 -0.0010016025641025631
893 656 -0.0034989316239316184
893 657 -0.0033386752136752096
893 658 2.439454888092385e-19
893 659 -0.013034188034188024
893 660 -0.013354700854700845
893 661 0.0010016025641025631
893 662 -0.0034989316239316189
893 663 -0.0033386752136752114
893 694 2.1684043449710089e-19
893 695 -0.0046474358974359
893 696 2.0599841277224584e-18
893 697 1.0842021724855044e-18
893 698 -0.014743589743589764
893 699 2.6020852139652106e-18
893 700 -1.5178830414797062e-18
893 701 -0.0046474358974358931
893 702 6.1799523831673753e-18
893 733 0.0010016025641025636
893 734 -0.003498931623931621
893 735 0.0033386752136752092
893 736 -2.1684043449710089e-19
893 737 -0.013034188034188033
893 738 0.013354700854700854
893 739 -0.0010016025641025638
893 740 -0.0034989316239316245
893 741 0.0033386752136752148
893 850 -0.0020032051282051272
893 851 -0.0016559829059829027
893 852 0.00066773504273503971
893 853 -5.4210108624275222e-20
893 854 -0.0047008547008546989
893 855 0.0026709401709401714
893 856 0.0020032051282051267
893 857 -0.0016559829059829005
893 858 0.00066773504273504589
893 889 -1.0842021724855044e-19
893 890 0.012072649572649558
893 891 1.7347234759768071e-18
893 892 3.903127820947816e-18
893 893 0.055982905982905957
894 655 -0.0020032051282051272
894 656 -0.0033386752136752092
894 657 -0.0068376068376068298
894 658 1.3552527156068805e-18
894 659 -0.013354700854700845
894 660 -0.026388888888888878
894 661 0.0020032051282051267
894 662 -0.0033386752136752118
894 663 -0.0068376068376068289
894 694 -0.0080128205128205121
894 695 9.7578195523695399e-19
894 696 -0.024679487179487168
894 697 4.1199682554449168e-18
894 698 1.7347234759768071e-18
894 699 -0.094871794871794909
894 700 0.0080128205128205104
894 701 4.9873299934333204e-18
894 702 -0.024679487179487165
894 733 -0.0020032051282051289
894 734 0.0033386752136752101
894 735 -0.0068376068376068341
894 736 9.2157184661267877e-19
894 737 0.013354700854700852
894 738 -0.026388888888888899
894 739 0.0020032051282051276
894 740 0.0033386752136752144
894 741 -0.0068376068376068359
894 850 -0.00040064102564102541
894 851 -0.00066773504273504286
894 852 0.0050213675213675174
894 853 8.6736173798840355e-19
894 854 -0.0026709401709401671
894 855 0.022008547008546993
894 856 0.00040064102564102384
894 857 -0.00066773504273503928
894 858 0.0050213675213675261
894 889 -0.0016025641025641032
894 890 -1.3010426069826053e-18
894 891 0.025427350427350406
894 892 6.9388939039072284e-18
894 893 -1.9081958235744878e-17
894 894 0.10940170940170937
895 658 -0.0027866809116809145
895 659 -0.0010016025641025634
895 660 -0.002003205128205128
895 661 -0.0038906695156695182
895 662 -0.00020032051282051243
895 663 -0.00040064102564102427
895 697 -0.0084757834757834914
895 698 -5.9631119486702744e-19
895 699 -0.0080128205128205156
895 700 -0.010220797720797741
895 701 1.3010426069826053e-18
895 702 -0.001602564102564099
895 736 -0.0027866809116809154
895 737 0.0010016025641025634
895 738 -0.0020032051282051293
895 739 -0.0038906695156695225
895 740 0.00020032051282051284
895 741 -0.00040064102564102471
895 853 -0.0002314814814814803
895 854 -0.0020032051282051272
895 855 0.00040064102564102433
895 856 0.0029024216524216554
895 857 -0.00040064102564102514
895 858 0.0020032051282051285
895 892 0.0044159544159544286
895 893 -3.1983964088322381e-18
895 894 0.0016025641025640969
895 895 0.022293447293447316
896 658 -0.0010016025641025634
896 659 -0.0034989316239316284
896 660 -0.0033386752136752179
896 661 0.00020032051282051289
896 662 -0.0065170940170940191
896 663 -0.0066773504273504314
896 697 -7.8604657505199071e-19
896 698 -0.0046474358974359156
896 699 -3.7947076036992655e-18
896 700 8.6736173798840355e-19
896 701 -0.0073717948717948898
896 702 1.3010426069826053e-18
896 736 0.0010016025641025634
896 737 -0.0034989316239316267
896 738 0.0033386752136752161
896 739 -0.00020032051282051257
896 740 -0.0065170940170940243
896 741 0.0066773504273504314
896 853 -0.0020032051282051276
896 854 -0.0016559829059829096
896 855 0.00066773504273503993
896 856 0.00040064102564102579
896 857 -0.0023504273504273477
896 858 0.0013354700854700887
896 892 -2.8189256484623115e-18
896 893 0.012072649572649582
896 894 -3.0357660829594124e-18
896 895 2.1684043449710089e-18
896 896 0.027991452991453024
897 658 -0.002003205128205128
897 659 -0.0033386752136752174
897 660 -0.0068376068376068497
897 661 0.00040064102564102666
897 662 -0.0066773504273504323
897 663 -0.013194444444444451
897 697 -0.0080128205128205156
897 698 -3.903127820947816e-18
897 699 -0.024679487179487244
897 700 0.0016025641025641064
897 701 3.903127820947816e-18
897 702 -0.047435897435897496
897 736 -0.0020032051282051293
897 737 0.0033386752136752153
897 738 -0.0068376068376068549
897 739 0.00040064102564102666
897 740 0.0066773504273504331
897 741 -0.013194444444444467
897 853 -0.00040064102564102671
897 854 -0.00066773504273504654
897 855 0.0050213675213675252
897 856 0.0020032051282051285
897 857 -0.0013354700854700853
897 858 0.011004273504273522
897 892 -0.0016025641025641077
897 893 -4.7704895589362195e-18
897 894 0.025427350427350452
897 895 0.008012820512820519
897 896 2.6020852139652106e-18
897 897 0.054700854700854798
898 664 -0.0038906695156695156
898 665 0.00020032051282051265
898 666 0.00040064102564102579
898 667 -0.0027866809116809102
898 668 0.0010016025641025636
898 669 0.002003205128205128
898 703 -0.010220797720797726
898 704 0
898 705 0.0016025641025641029
898 706 -0.0084757834757834757
898 707 -7.0473141211557788e-19
898 708 0.0080128205128205121
898 742 -0.0038906695156695143
898 743 -0.00020032051282051306
898 744 0.00040064102564102541
898 745 -0.0027866809116809102
898 746 -0.0010016025641025634
898 747 0.0020032051282051267
898 859 0.0029024216524216554
898 860 0.00040064102564102552
898 861 -0.0020032051282051285
898 862 -0.00023148148148148
898 863 0.0020032051282051276
898 864 -0.00040064102564102612
898 898 0.022293447293447295
899 664 -0.00020032051282051265
899 665 -0.0065170940170940148
899 666 -0.0066773504273504244
899 667 0.0010016025641025636
899 668 -0.003498931623931621
899 669 -0.0033386752136752114
899 703 0
899 704 -0.0073717948717948794
899 705 1.5178830414797062e-18
899 706 -5.4210108624275222e-19
899 707 -0.0046474358974359
899 708 5.4210108624275222e-19
899 742 0.0002003205128205123
899 743 -0.0065170940170940156
899 744 0.0066773504273504253
899 745 -0.0010016025641025634
899 746 -0.0034989316239316228
899 747 0.0033386752136752127
899 859 -0.00040064102564102546
899 860 -0.0023504273504273438
899 861 0.0013354700854700851
899 862 0.0020032051282051276
899 863 -0.0016559829059829023
899 864 0.00066773504273504253
899 898 1.3010426069826053e-18
899 899 0.027991452991452982
900 664 -0.00040064102564102536
900 665 -0.0066773504273504236
900 666 -0.013194444444444444
900 667 0.002003205128205128
900 668 -0.0033386752136752114
900 669 -0.0068376068376068341
900 703 -0.0016025641025641025
900 704 8.6736173798840355e-19
900 705 -0.047435897435897434
900 706 0.0080128205128205121
900 707 5.4210108624275222e-19
900 708 -0.024679487179487175
900 742 -0.00040064102564102536
900 743 0.0066773504273504253
900 744 -0.013194444444444439
900 745 0.0020032051282051267
900 746 0.0033386752136752127
900 747 -0.0068376068376068333
900 859 -0.002003205128205128
900 860 -0.0013354700854700851
900 861 0.011004273504273512
900 862 0.0004006410256410253
900 863 -0.00066773504273504199
900 864 0.0050213675213675235
900 898 -0.0080128205128205121
900 899 -2.6020852139652106e-18
900 900 0.054700854700854701
901 664 -0.0027866809116809097
901 665 -0.0010016025641025631
901 666 -0.002003205128205128
901 667 -0.0077813390313390286
901 668 1.3552527156068805e-19
901 669 8.1315162936412833e-19
901 670 -0.0027866809116809119
901 671 0.0010016025641025636
901 672 0.0020032051282051285
901 703 -0.0084757834757834757
901 704 2.7105054312137611e-19
901 705 -0.0080128205128205121
901 706 -0.020441595441595448
901 707 2.1684043449710089e-19
901 708 1.4094628242311558e-18
901 709 -0.0084757834757834792
901 710 -6.2341624917916505e-19
901 711 0.0080128205128205121
901 742 -0.0027866809116809102
901 743 0.0010016025641025636
901 744 -0.0020032051282051267
901 745 -0.0077813390313390294
901 746 -4.6078592330633938e-19
901 747 8.1315162936412833e-19
901 748 -0.0027866809116809106
901 749 -0.0010016025641025634
901 750 0.0020032051282051272
901 859 -0.00023148148148147992
901 860 -0.0020032051282051267
901 861 0.00040064102564102579
901 862 0.0058048433048433108
901 863 -1.0842021724855044e-19
901 864 -4.3368086899420177e-19
901 865 -0.00023148148148147978
901 866 0.0020032051282051276
901 867 -0.00040064102564102584
901 898 0.004415954415954413
901 899 -4.87890977618477e-19
901 900 0.0016025641025641025
901 901 0.044586894586894583
902 664 -0.0010016025641025631
902 665 -0.0034989316239316206
902 666 -0.0033386752136752114
902 667 1.8973538018496328e-19
902 668 -0.013034188034188026
902 669 -0.013354700854700849
902 670 0.0010016025641025636
902 671 -0.0034989316239316219
902 672 -0.0033386752136752122
902 703 2.1684043449710089e-19
902 704 -0.0046474358974359
902 705 7.589415207398531e-19
902 706 4.3368086899420177e-19
902 707 -0.014743589743589757
902 708 3.903127820947816e-18
902 709 -5.9631119486702744e-19
902 710 -0.0046474358974359017
902 711 1.1926223897340549e-18
902 742 0.0010016025641025634
902 743 -0.0034989316239316228
902 744 0.0033386752136752122
902 745 -6.2341624917916505e-19
902 746 -0.013034188034188033
902 747 0.013354700854700851
902 748 -0.0010016025641025634
902 749 -0.0034989316239316228
902 750 0.0033386752136752131
902 859 -0.0020032051282051267
902 860 -0.0016559829059829023
902 861 0.00066773504273504231
902 862 -3.7947076036992655e-19
902 863 -0.0047008547008546876
902 864 0.0026709401709401719
902 865 0.0020032051282051276
902 866 -0.0016559829059829021
902 867 0.00066773504273504199
902 898 -2.7105054312137611e-19
902 899 0.012072649572649566
902 900 -1.7347234759768071e-18
902 901 8.6736173798840355e-19
902 902 0.055982905982905964
903 664 -0.002003205128205128
903 665 -0.0033386752136752114
903 666 -0.006837606837606835
903 667 7.0473141211557788e-19
903 668 -0.013354700854700849
903 669 -0.026388888888888885
903 670 0.002003205128205128
903 671 -0.0033386752136752122
903 672 -0.0068376068376068376
903 703 -0.0080128205128205121
903 704 6.5052130349130266e-19
903 705 -0.024679487179487175
903 706 8.6736173798840355e-19
903 707 3.4694469519536142e-18
903 708 -0.094871794871794882
903 709 0.0080128205128205121
903 710 1.0842021724855044e-18
903 711 -0.024679487179487185
903 742 -0.0020032051282051267
903 743 0.0033386752136752122
903 744 -0.0068376068376068341
903 745 9.2157184661267877e-19
903 746 0.013354700854700852
903 747 -0.026388888888888878
903 748 0.0020032051282051272
903 749 0.0033386752136752127
903 750 -0.0068376068376068359
903 859 -0.00040064102564102541
903 860 -0.00066773504273504221
903 861 0.0050213675213675226
903 862 -8.6736173798840355e-19
903 863 -0.0026709401709401693
903 864 0.022008547008547021
903 865 0.00040064102564102552
903 866 -0.00066773504273504275
903 867 0.0050213675213675252
903 898 -0.0016025641025641019
903 899 -1.7347234759768071e-18
903 900 0.02542735042735042
903 901 -3.4694469519536142e-18
903 902 -7.8062556418956319e-18
903 903 0.1094017094017094
904 667 -0.0027866809116809097
904 668 -0.0010016025641025631
904 669 -0.002003205128205128
904 670 -0.0077813390313390294
904 671 1.3552527156068805e-19
904 672 9.2157184661267877e-19
904 673 -0.0027866809116809106
904 674 0.0010016025641025636
904 675 0.002003205128205128
904 706 -0.0084757834757834723
904 707 2.9815559743351372e-19
904 708 -0.0080128205128205121
904 709 -0.020441595441595455
904 710 2.1684043449710089e-19
904 711 5.4210108624275222e-19
904 712 -0.0084757834757834757
904 713 -7.589415207398531e-19
904 714 0.0080128205128205121
904 745 -0.0027866809116809097
904 746 0.0010016025641025636
904 747 -0.0020032051282051267
904 748 -0.0077813390313390303
904 749 -4.6078592330633938e-19
904 750 7.589415207398531e-19
904 751 -0.0027866809116809102
904 752 -0.0010016025641025636
904 753 0.0020032051282051272
904 862 -0.00023148148148147962
904 863 -0.0020032051282051272
904 864 0.00040064102564102617
904 865 0.00580484330484331
904 866 -5.4210108624275222e-20
904 867 -4.3368086899420177e-19
904 868 -0.00023148148148147962
904 869 0.0020032051282051276
904 870 -0.00040064102564102633
904 901 0.0044159544159544156
904 902 -4.87890977618477e-19
904 903 0.0016025641025641034
904 904 0.044586894586894583
905 667 -0.0010016025641025631
905 668 -0.0034989316239316202
905 669 -0.0033386752136752118
905 670 2.7105054312137611e-19
905 671 -0.013034188034188028
905 672 -0.013354700854700851
905 673 0.0010016025641025636
905 674 -0.0034989316239316219
905 675 -0.0033386752136752122
905 706 3.2526065174565133e-19
905 707 -0.0046474358974358965
905 708 1.1926223897340549e-18
905 709 4.3368086899420177e-19
905 710 -0.014743589743589761
905 711 3.4694469519536142e-18
905 712 -6.7762635780344027e-19
905 713 -0.0046474358974358991
905 714 1.4094628242311558e-18
905 745 0.0010016025641025634
905 746 -0.0034989316239316215
905 747 0.0033386752136752122
905 748 -5.4210108624275222e-19
905 749 -0.013034188034188033
905 750 0.013354700854700852
905 751 -0.0010016025641025636
905 752 -0.0034989316239316232
905 753 0.0033386752136752131
905 862 -0.0020032051282051272
905 863 -0.0016559829059829018
905 864 0.00066773504273504362
905 865 -3.2526065174565133e-19
905 866 -0.0047008547008546894
905 867 0.002670940170940171
905 868 0.0020032051282051276
905 869 -0.0016559829059829021
905 870 0.00066773504273504296
905 901 -1.0842021724855044e-19
905 902 0.012072649572649568
905 903 -1.7347234759768071e-18
905 904 1.7347234759768071e-18
905 905 0.055982905982905971
906 667 -0.0020032051282051276
906 668 -0.0033386752136752118
906 669 -0.0068376068376068333
906 670 5.9631119486702744e-19
906 671 -0.013354700854700849
906 672 -0.026388888888888889
906 673 0.002003205128205128
906 674 -0.0033386752136752122
906 675 -0.0068376068376068359
906 706 -0.0080128205128205104
906 707 1.3010426069826053e-18
906 708 -0.024679487179487168
906 709 2.1684043449710089e-19
906 710 2.6020852139652106e-18
906 711 -0.094871794871794882
906 712 0.0080128205128205121
906 713 1.6263032587282567e-18
906 714 -0.024679487179487179
906 745 -0.0020032051282051263
906 746 0.0033386752136752114
906 747 -0.0068376068376068315
906 748 6.5052130349130266e-19
906 749 0.013354700854700852
906 750 -0.026388888888888885
906 751 0.0020032051282051267
906 752 0.0033386752136752135
906 753 -0.006837606837606835
906 862 -0.00040064102564102514
906 863 -0.00066773504273504134
906 864 0.0050213675213675252
906 865 -4.3368086899420177e-19
906 866 -0.0026709401709401684
906 867 0.022008547008547021
906 868 0.00040064102564102525
906 869 -0.00066773504273504166
906 870 0.0050213675213675252
906 901 -0.001602564102564101
906 902 -1.7347234759768071e-18
906 903 0.025427350427350424
906 904 -1.7347234759768071e-18
906 905 -9.540979117872439e-18
906 906 0.10940170940170939
907 670 -0.002786680911680911
907 671 -0.0010016025641025634
907 672 -0.002003205128205128
907 673 -0.0077813390313390286
907 674 2.439454888092385e-19
907 675 7.589415207398531e-19
907 676 -0.0027866809116809106
907 677 0.0010016025641025634
907 678 0.002003205128205128
907 709 -0.0084757834757834775
907 710 1.6263032587282567e-19
907 711 -0.0080128205128205121
907 712 -0.020441595441595451
907 713 2.1684043449710089e-19
907 714 4.3368086899420177e-19
907 715 -0.0084757834757834757
907 716 -7.3183646642771549e-19
907 717 0.0080128205128205121
907 748 -0.0027866809116809106
907 749 0.0010016025641025636
907 750 -0.0020032051282051272
907 751 -0.0077813390313390286
907 752 -4.0657581468206416e-19
907 753 4.87890977618477e-19
907 754 -0.0027866809116809097
907 755 -0.0010016025641025634
907 756 0.0020032051282051267
907 865 -0.0002314814814814794
907 866 -0.0020032051282051272
907 867 0.00040064102564102579
907 868 0.0058048433048433108
907 869 1.6263032587282567e-19
907 870 0
907 871 -0.00023148148148147997
907 872 0.0020032051282051276
907 873 -0.0004006410256410259
907 904 0.0044159544159544165
907 905 -4.3368086899420177e-19
907 906 0.0016025641025641021
907 907 0.044586894586894583
908 670 -0.0010016025641025631
908 671 -0.0034989316239316219
908 672 -0.0033386752136752131
908 673 3.5236570605778894e-19
908 674 -0.013034188034188026
908 675 -0.013354700854700847
908 676 0.0010016025641025634
908 677 -0.0034989316239316206
908 678 -0.0033386752136752105
908 709 1.6263032587282567e-19
908 710 -0.0046474358974359017
908 711 3.2526065174565133e-19
908 712 2.1684043449710089e-19
908 713 -0.014743589743589759
908 714 2.6020852139652106e-18
908 715 -6.2341624917916505e-19
908 716 -0.0046474358974359
908 717 6.5052130349130266e-19
908 748 0.0010016025641025634
908 749 -0.0034989316239316236
908 750 0.0033386752136752131
908 751 -5.1499603193061461e-19
908 752 -0.013034188034188031
908 753 0.013354700854700851
908 754 -0.0010016025641025634
908 755 -0.003498931623931621
908 756 0.0033386752136752114
908 865 -0.0020032051282051272
908 866 -0.0016559829059829021
908 867 0.00066773504273504242
908 868 1.6263032587282567e-19
908 869 -0.0047008547008546876
908 870 0.0026709401709401701
908 871 0.0020032051282051272
908 872 -0.0016559829059829016
908 873 0.00066773504273504156
908 904 -2.7105054312137611e-19
908 905 0.01207264957264957
908 906 0
908 907 1.3010426069826053e-18
908 908 0.055982905982905971
909 670 -0.002003205128205128
909 671 -0.0033386752136752131
909 672 -0.0068376068376068367
909 673 8.1315162936412833e-19
909 674 -0.013354700854700849
909 675 -0.026388888888888885
909 676 0.002003205128205128
909 677 -0.0033386752136752109
909 678 -0.0068376068376068333
909 709 -0.0080128205128205121
909 710 4.3368086899420177e-19
909 711 -0.024679487179487185
909 712 7.589415207398531e-19
909 713 1.951563910473908e-18
909 714 -0.094871794871794896
909 715 0.0080128205128205121
909 716 8.6736173798840355e-19
909 717 -0.024679487179487175
909 748 -0.0020032051282051272
909 749 0.0033386752136752131
909 750 -0.006837606837606835
909 751 4.87890977618477e-19
909 752 0.013354700854700851
909 753 -0.026388888888888878
909 754 0.0020032051282051272
909 755 0.0033386752136752109
909 756 -0.0068376068376068307
909 865 -0.00040064102564102552
909 866 -0.00066773504273504242
909 867 0.0050213675213675252
909 868 -4.3368086899420177e-19
909 869 -0.0026709401709401693
909 870 0.022008547008547024
909 871 0.0004006410256410253
909 872 -0.00066773504273504275
909 873 0.0050213675213675226
909 904 -0.0016025641025641023
909 905 -4.3368086899420177e-19
909 906 0.025427350427350427
909 907 -2.6020852139652106e-18
909 908 -6.9388939039072284e-18
909 909 0.1094017094017094
910 673 -0.0027866809116809097
910 674 -0.0010016025641025631
910 675 -0.0020032051282051276
910 676 -0.0077813390313390312
910 677 8.1315162936412833e-20
910 678 1.0299920638612292e-18
910 679 -0.0027866809116809115
910 680 0.0010016025641025634
910 681 0.002003205128205128
910 712 -0.008475783475783474
910 713 2.439454888092385e-19
910 714 -0.0080128205128205086
910 715 -0.020441595441595458
910 716 4.3368086899420177e-19
910 717 1.5178830414797062e-18
910 718 -0.0084757834757834775
910 719 -8.9446679230054116e-19
910 720 0.0080128205128205121
910 751 -0.0027866809116809089
910 752 0.0010016025641025636
910 753 -0.0020032051282051263
910 754 -0.0077813390313390303
910 755 -4.3368086899420177e-19
910 756 9.2157184661267877e-19
910 757 -0.002786680911680911
910 758 -0.0010016025641025634
910 759 0.0020032051282051263
910 868 -0.00023148148148147981
910 869 -0.0020032051282051267
910 870 0.00040064102564102584
910 871 0.0058048433048433091
910 872 -1.0842021724855044e-19
910 873 -8.6736173798840355e-19
910 874 -0.0002314814814814781
910 875 0.0020032051282051276
910 876 -0.00040064102564102622
910 907 0.0044159544159544121
910 908 -5.9631119486702744e-19
910 909 0.0016025641025641029
910 910 0.044586894586894583
911 673 -0.0010016025641025629
911 674 -0.0034989316239316197
911 675 -0.0033386752136752105
911 676 5.4210108624275222e-20
911 677 -0.013034188034188028
911 678 -0.013354700854700849
911 679 0.0010016025641025634
911 680 -0.0034989316239316223
911 681 -0.0033386752136752131
911 712 2.1684043449710089e-19
911 713 -0.0046474358974358965
911 714 8.6736173798840355e-19
911 715 4.3368086899420177e-19
911 716 -0.014743589743589762
911 717 2.1684043449710089e-18
911 718 -8.1315162936412833e-19
911 719 -0.0046474358974359
911 720 1.4094628242311558e-18
911 751 0.0010016025641025634
911 752 -0.0034989316239316206
911 753 0.0033386752136752105
911 754 -5.6920614055488983e-19
911 755 -0.013034188034188033
911 756 0.013354700854700852
911 757 -0.0010016025641025634
911 758 -0.0034989316239316245
911 759 0.0033386752136752144
911 868 -0.0020032051282051267
911 869 -0.0016559829059829016
911 870 0.00066773504273504221
911 871 -4.3368086899420177e-19
911 872 -0.0047008547008546911
911 873 0.0026709401709401706
911 874 0.0020032051282051272
911 875 -0.0016559829059829018
911 876 0.00066773504273504318
911 907 -3.7947076036992655e-19
911 908 0.012072649572649564
911 909 -4.3368086899420177e-19
911 910 1.3010426069826053e-18
911 911 0.055982905982905978
912 673 -0.0020032051282051276
912 674 -0.0033386752136752109
912 675 -0.0068376068376068324
912 676 7.0473141211557788e-19
912 677 -0.013354700854700849
912 678 -0.026388888888888889
912 679 0.002003205128205128
912 680 -0.0033386752136752135
912 681 -0.0068376068376068376
912 712 -0.0080128205128205104
912 713 8.6736173798840355e-19
912 714 -0.024679487179487168
912 715 9.7578195523695399e-19
912 716 2.1684043449710089e-18
912 717 -0.094871794871794896
912 718 0.0080128205128205121
912 719 2.3852447794681098e-18
912 720 -0.024679487179487185
912 751 -0.0020032051282051267
912 752 0.0033386752136752109
912 753 -0.0068376068376068298
912 754 7.589415207398531e-19
912 755 0.013354700854700852
912 756 -0.026388888888888878
912 757 0.0020032051282051267
912 758 0.003338675213675214
912 759 -0.0068376068376068359
912 868 -0.0004006410256410253
912 869 -0.00066773504273504221
912 870 0.0050213675213675235
912 871 -4.3368086899420177e-19
912 872 -0.0026709401709401701
912 873 0.022008547008547021
912 874 0.00040064102564102525
912 875 -0.00066773504273504253
912 876 0.0050213675213675287
912 907 -0.0016025641025641012
912 908 -1.3010426069826053e-18
912 909 0.025427350427350413
912 910 -2.6020852139652106e-18
912 911 -1.0408340855860843e-17
912 912 0.10940170940170939
913 676 -0.0027866809116809119
913 677 -0.0010016025641025631
913 678 -0.002003205128205128
913 679 -0.0077813390313390303
913 680 0
913 681 9.7578195523695399e-19
913 682 -0.0027866809116809102
913 683 0.0010016025641025636
913 684 0.002003205128205128
913 715 -0.0084757834757834792
913 716 1.0842021724855044e-19
913 717 -0.0080128205128205121
913 718 -0.020441595441595455
913 719 4.3368086899420177e-19
913 720 1.3010426069826053e-18
913 721 -0.008475783475783474
913 722 -3.2526065174565133e-19
913 723 0.0080128205128205121
913 754 -0.002786680911680911
913 755 0.0010016025641025636
913 756 -0.0020032051282051263
913 757 -0.0077813390313390303
913 758 -6.7762635780344027e-19
913 759 7.0473141211557788e-19
913 760 -0.0027866809116809093
913 761 -0.0010016025641025631
913 762 0.0020032051282051267
913 871 -0.00023148148148147845
913 872 -0.0020032051282051272
913 873 0.00040064102564102579
913 874 0.0058048433048433108
913 875 -5.4210108624275222e-20
913 876 0
913 877 -0.00023148148148148005
913 878 0.0020032051282051276
913 879 -0.00040064102564102612
913 910 0.0044159544159544234
913 911 -9.7578195523695399e-19
913 912 0.0016025641025641021
913 913 0.044586894586894583
914 676 -0.0010016025641025631
914 677 -0.0034989316239316236
914 678 -0.0033386752136752144
914 679 1.8973538018496328e-19
914 680 -0.013034188034188026
914 681 -0.013354700854700849
914 682 0.0010016025641025636
914 683 -0.003498931623931621
914 684 -0.0033386752136752118
914 715 5.4210108624275222e-20
914 716 -0.0046474358974359035
914 717 -6.5052130349130266e-19
914 718 0
914 719 -0.014743589743589764
914 720 2.1684043449710089e-19
914 721 -3.2526065174565133e-19
914 722 -0.0046474358974358991
914 723 -2.1684043449710089e-19
914 754 0.0010016025641025634
914 755 -0.0034989316239316236
914 756 0.003338675213675214
914 757 -6.5052130349130266e-19
914 758 -0.013034188034188033
914 759 0.013354700854700856
914 760 -0.0010016025641025634
914 761 -0.0034989316239316215
914 762 0.0033386752136752114
914 871 -0.0020032051282051267
914 872 -0.0016559829059829031
914 873 0.00066773504273504253
914 874 5.4210108624275222e-20
914 875 -0.0047008547008546876
914 876 0.0026709401709401719
914 877 0.0020032051282051272
914 878 -0.0016559829059829023
914 879 0.00066773504273504145
914 910 -7.0473141211557788e-19
914 911 0.012072649572649578
914 912 2.6020852139652106e-18
914 913 1.7347234759768071e-18
914 914 0.055982905982905978
915 676 -0.0020032051282051285
915 677 -0.003338675213675214
915 678 -0.0068376068376068411
915 679 8.1315162936412833e-19
915 680 -0.013354700854700849
915 681 -0.026388888888888885
915 682 0.002003205128205128
915 683 -0.0033386752136752118
915 684 -0.0068376068376068341
915 715 -0.0080128205128205121
915 716 4.3368086899420177e-19
915 717 -0.024679487179487199
915 718 1.3010426069826053e-18
915 719 4.3368086899420177e-19
915 720 -0.094871794871794896
915 721 0.0080128205128205104
915 722 -6.5052130349130266e-19
915 723 -0.024679487179487175
915 754 -0.0020032051282051267
915 755 0.0033386752136752144
915 756 -0.0068376068376068385
915 757 7.0473141211557788e-19
915 758 0.013354700854700856
915 759 -0.026388888888888885
915 760 0.0020032051282051272
915 761 0.0033386752136752114
915 762 -0.0068376068376068324
915 871 -0.00040064102564102552
915 872 -0.00066773504273504329
915 873 0.0050213675213675278
915 874 0
915 875 -0.0026709401709401693
915 876 0.022008547008547028
915 877 0.00040064102564102541
915 878 -0.00066773504273504275
915 879 0.0050213675213675226
915 910 -0.0016025641025641025
915 911 2.1684043449710089e-18
915 912 0.025427350427350441
915 913 -8.6736173798840355e-19
915 914 -7.8062556418956319e-18
915 915 0.1094017094017094
916 679 -0.0027866809116809097
916 680 -0.0010016025641025631
916 681 -0.0020032051282051276
916 682 -0.0077813390313390303
916 683 1.6263032587282567e-19
916 684 7.589415207398531e-19
916 685 -0.0027866809116809123
916 686 0.0010016025641025636
916 687 0.002003205128205128
916 718 -0.0084757834757834757
916 719 6.2341624917916505e-19
916 720 -0.0080128205128205086
916 721 -0.020441595441595455
916 722 2.1684043449710089e-19
916 723 9.7578195523695399e-19
916 724 -0.0084757834757834827
916 725 -1.111307226797642e-18
916 726 0.0080128205128205121
916 757 -0.0027866809116809097
916 758 0.0010016025641025636
916 759 -0.0020032051282051263
916 760 -0.007781339031339032
916 761 -6.5052130349130266e-19
916 762 7.589415207398531e-19
916 763 -0.0027866809116809123
916 764 -0.0010016025641025636
916 765 0.0020032051282051272
916 874 -0.00023148148148147946
916 875 -0.0020032051282051267
916 876 0.00040064102564102568
916 877 0.0058048433048433108
916 878 -5.4210108624275222e-20
916 879 -8.6736173798840355e-19
916 880 -0.00023148148148147778
916 881 0.0020032051282051272
916 882 -0.00040064102564102574
916 913 0.004415954415954413
916 914 -5.4210108624275222e-20
916 915 0.0016025641025641025
916 916 0.04458689458689459
917 679 -0.0010016025641025629
917 680 -0.0034989316239316197
917 681 -0.0033386752136752109
917 682 1.0842021724855044e-19
917 683 -0.013034188034188028
917 684 -0.013354700854700851
917 685 0.0010016025641025634
917 686 -0.0034989316239316232
917 687 -0.0033386752136752127
917 718 5.9631119486702744e-19
917 719 -0.0046474358974358983
917 720 2.4936649967166602e-18
917 721 2.1684043449710089e-19
917 722 -0.014743589743589764
917 723 3.4694469519536142e-18
917 724 -9.4867690092481638e-19
917 725 -0.0046474358974359061
917 726 3.0357660829594124e-18
917 757 0.0010016025641025636
917 758 -0.0034989316239316223
917 759 0.0033386752136752118
917 760 -6.5052130349130266e-19
917 761 -0.013034188034188033
917 762 0.013354700854700852
917 763 -0.0010016025641025636
917 764 -0.0034989316239316258
917 765 0.0033386752136752148
917 874 -0.0020032051282051267
917 875 -0.0016559829059829003
917 876 0.00066773504273504166
917 877 -2.7105054312137611e-19
917 878 -0.0047008547008546894
917 879 0.0026709401709401693
917 880 0.0020032051282051272
917 881 -0.0016559829059829001
917 882 0.00066773504273504123
917 913 5.4210108624275222e-20
917 914 0.012072649572649566
917 915 -8.6736173798840355e-19
917 916 1.7347234759768071e-18
917 917 0.055982905982905978
918 679 -0.0020032051282051276
918 680 -0.0033386752136752114
918 681 -0.0068376068376068333
918 682 4.87890977618477e-19
918 683 -0.013354700854700852
918 684 -0.026388888888888885
918 685 0.0020032051282051285
918 686 -0.0033386752136752135
918 687 -0.0068376068376068419
918 718 -0.0080128205128205104
918 719 3.3610267347050637e-18
918 720 -0.024679487179487175
918 721 3.2526065174565133e-19
918 722 4.1199682554449168e-18
918 723 -0.094871794871794909
918 724 0.0080128205128205121
918 725 2.8189256484623115e-18
918 726 -0.024679487179487203
918 757 -0.0020032051282051267
918 758 0.0033386752136752122
918 759 -0.0068376068376068324
918 760 7.0473141211557788e-19
918 761 0.013354700854700852
918 762 -0.026388888888888885
918 763 0.0020032051282051272
918 764 0.0033386752136752153
918 765 -0.0068376068376068411
918 874 -0.00040064102564102546
918 875 -0.00066773504273504318
918 876 0.0050213675213675235
918 877 -8.6736173798840355e-19
918 878 -0.002670940170940171
918 879 0.022008547008547028
918 880 0.00040064102564102601
918 881 -0.00066773504273504394
918 882 0.0050213675213675295
918 913 -0.0016025641025641016
918 914 8.6736173798840355e-19
918 915 0.02542735042735042
918 916 -4.3368086899420177e-18
918 917 -7.8062556418956319e-18
918 918 0.10940170940170942
919 682 -0.0027866809116809102
919 683 -0.0010016025641025634
919 684 -0.002003205128205128
919 685 -0.007781339031339026
919 686 -5.4210108624275222e-20
919 687 7.589415207398531e-19
919 688 -0.002786680911680908
919 689 0.0010016025641025636
919 690 0.0020032051282051276
919 721 -0.0084757834757834757
919 722 -1.3552527156068805e-19
919 723 -0.0080128205128205104
919 724 -0.020441595441595444
919 725 -2.1684043449710089e-19
919 726 6.5052130349130266e-19
919 727 -0.0084757834757834671
919 728 2.439454888092385e-19
919 729 0.0080128205128205104
919 760 -0.0027866809116809097
919 761 0.0010016025641025634
919 762 -0.0020032051282051267
919 763 -0.0077813390313390268
919 764 -7.3183646642771549e-19
919 765 8.1315162936412833e-19
919 766 -0.0027866809116809063
919 767 -0.0010016025641025631
919 768 0.0020032051282051267
919 877 -0.00023148148148147848
919 878 -0.0020032051282051272
919 879 0.00040064102564102649
919 880 0.0058048433048433074
919 881 -6.5052130349130266e-19
919 882 0
919 883 -0.00023148148148148233
919 884 0.002003205128205128
919 885 -0.00040064102564102655
919 916 0.0044159544159544251
919 917 -1.463672932855431e-18
919 918 0.0016025641025641042
919 919 0.044586894586894556
920 682 -0.0010016025641025631
920 683 -0.0034989316239316228
920 684 -0.0033386752136752127
920 685 1.3552527156068805e-19
920 686 -0.013034188034188021
920 687 -0.013354700854700845
920 688 0.0010016025641025636
920 689 -0.0034989316239316176
920 690 -0.0033386752136752079
920 721 -1.8973538018496328e-19
920 722 -0.0046474358974358983
920 723 -1.0842021724855044e-18
920 724 -4.3368086899420177e-19
920 725 -0.014743589743589752
920 726 2.1684043449710089e-19
920 727 3.2526065174565133e-19
920 728 -0.0046474358974358913
920 729 -4.6620693416876691e-18
920 760 0.0010016025641025634
920 761 -0.0034989316239316219
920 762 0.0033386752136752131
920 763 -7.589415207398531e-19
920 764 -0.013034188034188026
920 765 0.013354700854700845
920 766 -0.0010016025641025631
920 767 -0.0034989316239316163
920 768 0.0033386752136752066
920 877 -0.0020032051282051272
920 878 -0.0016559829059829031
920 879 0.00066773504273504394
920 880 -5.9631119486702744e-19
920 881 -0.0047008547008546876
920 882 0.0026709401709401701
920 883 0.0020032051282051272
920 884 -0.0016559829059829044
920 885 0.00066773504273504437
920 916 -1.0842021724855044e-18
920 917 0.012072649572649578
920 918 -1.7347234759768071e-18
920 919 -4.3368086899420177e-19
920 920 0.055982905982905937
921 682 -0.0020032051282051276
921 683 -0.003338675213675214
921 684 -0.0068376068376068359
921 685 9.2157184661267877e-19
921 686 -0.013354700854700845
921 687 -0.026388888888888878
921 688 0.0020032051282051276
921 689 -0.0033386752136752075
921 690 -0.0068376068376068263
921 721 -0.0080128205128205121
921 722 -1.3010426069826053e-18
921 723 -0.024679487179487179
921 724 8.6736173798840355e-19
921 725 2.8189256484623115e-18
921 726 -0.094871794871794854
921 727 0.0080128205128205104
921 728 -3.7947076036992655e-18
921 729 -0.02467948717948714
921 760 -0.0020032051282051267
921 761 0.0033386752136752131
921 762 -0.0068376068376068341
921 763 7.589415207398531e-19
921 764 0.013354700854700845
921 765 -0.026388888888888871
921 766 0.0020032051282051263
921 767 0.0033386752136752079
921 768 -0.0068376068376068237
921 877 -0.00040064102564102487
921 878 -0.00066773504273504199
921 879 0.0050213675213675295
921 880 -4.3368086899420177e-19
921 881 -0.0026709401709401658
921 882 0.022008547008547
921 883 0.00040064102564102481
921 884 -0.00066773504273503939
921 885 0.0050213675213675183
921 916 -0.0016025641025641001
921 917 -3.0357660829594124e-18
921 918 0.025427350427350448
921 919 -2.6020852139652106e-18
921 920 3.4694469519536142e-18
921 921 0.1094017094017093
922 685 -0.0027866809116809084
922 686 -0.0010016025641025627
922 687 -0.002003205128205128
922 688 -0.0077813390313390251
922 689 -3.7947076036992655e-19
922 690 4.3368086899420177e-19
922 691 -0.0027866809116809141
922 692 0.0010016025641025636
922 693 0.0020032051282051285
922 724 -0.0084757834757834723
922 725 1.1926223897340549e-18
922 726 -0.0080128205128205104
922 727 -0.020441595441595437
922 728 -1.3010426069826053e-18
922 729 -4.3368086899420177e-19
922 730 -0.0084757834757834861
922 731 8.1315162936412833e-20
922 732 0.0080128205128205156
922 763 -0.0027866809116809089
922 764 0.0010016025641025636
922 765 -0.0020032051282051263
922 766 -0.0077813390313390251
922 767 -1.111307226797642e-18
922 768 5.4210108624275222e-19
922 769 -0.0027866809116809123
922 770 -0.0010016025641025631
922 771 0.0020032051282051272
922 880 -0.00023148148148147976
922 881 -0.0020032051282051263
922 882 0.00040064102564102546
922 883 0.0058048433048433134
922 884 -1.1926223897340549e-18
922 885 -1.3010426069826053e-18
922 886 -0.00023148148148148135
922 887 0.002003205128205128
922 888 -0.00040064102564102509
922 919 0.0044159544159544026
922 920 2.3852447794681098e-18
922 921 0.0016025641025641003
922 922 0.044586894586894583
923 685 -0.0010016025641025627
923 686 -0.0034989316239316167
923 687 -0.0033386752136752062
923 688 -4.3368086899420177e-19
923 689 -0.013034188034188019
923 690 -0.013354700854700845
923 691 0.0010016025641025638
923 692 -0.0034989316239316262
923 693 -0.0033386752136752157
923 724 1.1926223897340549e-18
923 725 -0.0046474358974358983
923 726 4.3368086899420177e-18
923 727 -1.5178830414797062e-18
923 728 -0.014743589743589748
923 729 4.3368086899420177e-18
923 730 1.3552527156068805e-19
923 731 -0.0046474358974359104
923 732 -1.3010426069826053e-18
923 763 0.0010016025641025636
923 764 -0.0034989316239316202
923 765 0.0033386752136752101
923 766 -1.0028870095490916e-18
923 767 -0.013034188034188026
923 768 0.013354700854700845
923 769 -0.0010016025641025631
923 770 -0.0034989316239316249
923 771 0.0033386752136752135
923 880 -0.0020032051282051259
923 881 -0.0016559829059828955
923 882 0.00066773504273504231
923 883 -1.5720931501039814e-18
923 884 -0.0047008547008546807
923 885 0.0026709401709401675
923 886 0.002003205128205128
923 887 -0.0016559829059829068
923 888 0.00066773504273503798
923 919 2.439454888092385e-18
923 920 0.012072649572649552
923 921 -3.4694469519536142e-18
923 922 -3.0357660829594124e-18
923 923 0.055982905982905964
924 685 -0.002003205128205128
924 686 -0.0033386752136752066
924 687 -0.0068376068376068315
924 688 2.7105054312137611e-19
924 689 -0.013354700854700845
924 690 -0.026388888888888875
924 691 0.0020032051282051285
924 692 -0.0033386752136752157
924 693 -0.0068376068376068463
924 724 -0.0080128205128205121
924 725 5.5294310796760726e-18
924 726 -0.024679487179487161
924 727 -1.3010426069826053e-18
924 728 4.7704895589362195e-18
924 729 -0.094871794871794854
924 730 0.0080128205128205138
924 731 -1.0842021724855044e-18
924 732 -0.02467948717948722
924 763 -0.0020032051282051267
924 764 0.0033386752136752105
924 765 -0.0068376068376068289
924 766 2.7105054312137611e-19
924 767 0.013354700854700845
924 768 -0.026388888888888865
924 769 0.0020032051282051276
924 770 0.0033386752136752135
924 771 -0.0068376068376068445
924 880 -0.00040064102564102579
924 881 -0.00066773504273504134
924 882 0.0050213675213675209
924 883 -1.3010426069826053e-18
924 884 -0.0026709401709401719
924 885 0.022008547008547024
924 886 0.00040064102564102639
924 887 -0.00066773504273504806
924 888 0.0050213675213675209
924 919 -0.0016025641025641034
924 920 0
924 921 0.025427350427350399
924 922 -6.9388939039072284e-18
924 923 0
924 924 0.1094017094017094
925 688 -0.0027866809116809084
925 689 -0.0010016025641025631
925 690 -0.0020032051282051276
925 691 -0.0077813390313390355
925 692 1.3552527156068805e-19
925 693 7.0473141211557788e-19
925 694 -0.0027866809116809097
925 695 0.0010016025641025631
925 696 0.0020032051282051276
925 727 -0.0084757834757834671
925 728 1.0299920638612292e-18
925 729 -0.0080128205128205086
925 730 -0.020441595441595468
925 731 6.5052130349130266e-19
925 732 -1.0842021724855044e-19
925 733 -0.0084757834757834723
925 734 -1.5449880957918438e-18
925 735 0.0080128205128205121
925 766 -0.0027866809116809084
925 767 0.0010016025641025638
925 768 -0.0020032051282051259
925 769 -0.0077813390313390355
925 770 -5.6920614055488983e-19
925 771 5.9631119486702744e-19
925 772 -0.0027866809116809102
925 773 -0.0010016025641025638
925 774 0.0020032051282051267
925 883 -0.00023148148148147932
925 884 -0.0020032051282051263
925 885 0.00040064102564102704
925 886 0.0058048433048433091
925 887 -2.1684043449710089e-19
925 888 -8.6736173798840355e-19
925 889 -0.00023148148148147794
925 890 0.0020032051282051272
925 891 -0.00040064102564102698
925 922 0.0044159544159544147
925 923 1.3010426069826053e-18
925 924 0.0016025641025641068
925 925 0.04458689458689459
926 688 -0.0010016025641025631
926 689 -0.0034989316239316184
926 690 -0.0033386752136752114
926 691 1.3552527156068805e-19
926 692 -0.013034188034188033
926 693 -0.013354700854700852
926 694 0.0010016025641025634
926 695 -0.0034989316239316206
926 696 -0.0033386752136752118
926 727 1.0028870095490916e-18
926 728 -0.0046474358974358913
926 729 6.7220534694101275e-18
926 730 2.1684043449710089e-19
926 731 -0.014743589743589771
926 732 -1.0842021724855044e-18
926 733 -1.3010426069826053e-18
926 734 -0.0046474358974358965
926 735 4.6620693416876691e-18
926 766 0.0010016025641025638
926 767 -0.0034989316239316228
926 768 0.0033386752136752127
926 769 -5.9631119486702744e-19
926 770 -0.013034188034188038
926 771 0.013354700854700863
926 772 -0.0010016025641025636
926 773 -0.0034989316239316241
926 774 0.0033386752136752148
926 883 -0.0020032051282051263
926 884 -0.0016559829059829008
926 885 0.00066773504273504264
926 886 -3.7947076036992655e-19
926 887 -0.0047008547008546928
926 888 0.002670940170940174
926 889 0.0020032051282051267
926 890 -0.0016559829059829001
926 891 0.00066773504273504492
926 922 1.4094628242311558e-18
926 923 0.012072649572649568
926 924 4.3368086899420177e-19
926 925 1.3010426069826053e-18
926 926 0.055982905982905992
927 688 -0.0020032051282051276
927 689 -0.0033386752136752109
927 690 -0.0068376068376068289
927 691 5.9631119486702744e-19
927 692 -0.013354700854700852
927 693 -0.026388888888888899
927 694 0.0020032051282051276
927 695 -0.0033386752136752118
927 696 -0.0068376068376068341
927 727 -0.0080128205128205086
927 728 5.5294310796760726e-18
927 729 -0.024679487179487151
927 730 -2.1684043449710089e-19
927 731 -2.8189256484623115e-18
927 732 -0.094871794871794951
927 733 0.0080128205128205104
927 734 4.0115480381963664e-18
927 735 -0.024679487179487172
927 766 -0.0020032051282051259
927 767 0.0033386752136752118
927 768 -0.0068376068376068281
927 769 5.4210108624275222e-19
927 770 0.013354700854700863
927 771 -0.026388888888888892
927 772 0.0020032051282051267
927 773 0.0033386752136752148
927 774 -0.0068376068376068324
927 883 -0.00040064102564102416
927 884 -0.0006677350427350408
927 885 0.0050213675213675235
927 886 -8.6736173798840355e-19
927 887 -0.0026709401709401675
927 888 0.022008547008547028
927 889 0.0004006410256410246
927 890 -0.00066773504273503917
927 891 0.0050213675213675278
927 922 -0.0016025641025640973
927 923 -4.3368086899420177e-19
927 924 0.025427350427350413
927 925 -5.2041704279304213e-18
927 926 -1.9949319973733282e-17
927 927 0.10940170940170943
928 691 -0.0027866809116809141
928 692 -0.0010016025641025634
928 693 -0.0020032051282051289
928 694 -0.0077813390313390286
928 695 2.9815559743351372e-19
928 696 1.3010426069826053e-18
928 697 -0.0027866809116809089
928 698 0.0010016025641025634
928 699 0.002003205128205128
928 730 -0.0084757834757834844
928 731 -4.87890977618477e-19
928 732 -0.0080128205128205121
928 733 -0.020441595441595451
928 734 1.0842021724855044e-18
928 735 3.3610267347050637e-18
928 736 -0.0084757834757834705
928 737 -5.9631119486702744e-19
928 738 0.0080128205128205121
928 769 -0.0027866809116809128
928 770 0.0010016025641025634
928 771 -0.0020032051282051272
928 772 -0.0077813390313390303
928 773 -2.9815559743351372e-19
928 774 1.5178830414797062e-18
928 775 -0.0027866809116809089
928 776 -0.0010016025641025636
928 777 0.0020032051282051272
928 886 -0.00023148148148147954
928 887 -0.0020032051282051276
928 888 0.00040064102564102509
928 889 0.0058048433048433126
928 890 2.7105054312137611e-19
928 891 8.6736173798840355e-19
928 892 -0.00023148148148148103
928 893 0.0020032051282051276
928 894 -0.00040064102564102639
928 925 0.0044159544159544234
928 926 -2.4936649967166602e-18
928 927 0.001602564102564099
928 928 0.04458689458689459
929 691 -0.0010016025641025634
929 692 -0.0034989316239316262
929 693 -0.0033386752136752157
929 694 4.6078592330633938e-19
929 695 -0.013034188034188024
929 696 -0.013354700854700851
929 697 0.0010016025641025636
929 698 -0.003498931623931618
929 699 -0.0033386752136752088
929 730 -5.9631119486702744e-19
929 731 -0.0046474358974359104
929 732 -5.3125906451789717e-18
929 733 8.6736173798840355e-19
929 734 -0.014743589743589761
929 735 7.3725747729014302e-18
929 736 -5.6920614055488983e-19
929 737 -0.0046474358974358957
929 738 1.951563910473908e-18
929 769 0.0010016025641025634
929 770 -0.0034989316239316241
929 771 0.0033386752136752153
929 772 -3.2526065174565133e-19
929 773 -0.013034188034188031
929 774 0.013354700854700849
929 775 -0.0010016025641025634
929 776 -0.0034989316239316193
929 777 0.0033386752136752101
929 886 -0.0020032051282051272
929 887 -0.001655982905982906
929 888 0.00066773504273504221
929 889 1.6263032587282567e-19
929 890 -0.004700854700854685
929 891 0.0026709401709401658
929 892 0.0020032051282051276
929 893 -0.0016559829059829008
929 894 0.00066773504273504242
929 925 -2.0057740190981832e-18
929 926 0.012072649572649575
929 927 -2.6020852139652106e-18
929 928 2.6020852139652106e-18
929 929 0.055982905982905971
930 691 -0.0020032051282051285
930 692 -0.0033386752136752166
930 693 -0.0068376068376068471
930 694 1.1926223897340549e-18
930 695 -0.013354700854700852
930 696 -0.026388888888888878
930 697 0.0020032051282051276
930 698 -0.0033386752136752092
930 699 -0.0068376068376068298
930 730 -0.0080128205128205121
930 731 -3.903127820947816e-18
930 732 -0.024679487179487224
930 733 3.2526065174565133e-18
930 734 8.6736173798840355e-18
930 735 -0.094871794871794896
930 736 0.0080128205128205121
930 737 2.3852447794681098e-18
930 738 -0.024679487179487154
930 769 -0.0020032051282051272
930 770 0.0033386752136752148
930 771 -0.0068376068376068437
930 772 1.3010426069826053e-18
930 773 0.013354700854700849
930 774 -0.026388888888888878
930 775 0.0020032051282051267
930 776 0.0033386752136752088
930 777 -0.0068376068376068289
930 886 -0.00040064102564102628
930 887 -0.0006677350427350447
930 888 0.0050213675213675252
930 889 4.3368086899420177e-19
930 890 -0.002670940170940174
930 891 0.022008547008547024
930 892 0.00040064102564102503
930 893 -0.00066773504273504253
930 894 0.0050213675213675217
930 925 -0.0016025641025641049
930 926 -2.6020852139652106e-18
930 927 0.025427350427350434
930 928 8.6736173798840355e-19
930 929 1.214306433183765e-17
930 930 0.1094017094017094
931 694 -0.0027866809116809093
931 695 -0.0010016025641025631
931 696 -0.002003205128205128
931 697 -0.0077813390313390303
931 698 1.6263032587282567e-19
931 699 1.7347234759768071e-18
931 700 -0.0027866809116809093
931 701 0.0010016025641025631
931 702 0.0020032051282051276
931 733 -0.008475783475783474
931 734 2.1684043449710089e-19
931 735 -0.0080128205128205121
931 736 -0.020441595441595458
931 737 1.0842021724855044e-18
931 738 4.0115480381963664e-18
931 739 -0.0084757834757834688
931 740 -1.5720931501039814e-18
931 741 0.0080128205128205104
931 772 -0.0027866809116809093
931 773 0.0010016025641025636
931 774 -0.0020032051282051267
931 775 -0.0077813390313390312
931 776 -2.439454888092385e-19
931 777 1.6263032587282567e-18
931 778 -0.0027866809116809093
931 779 -0.0010016025641025638
931 780 0.0020032051282051263
931 889 -0.00023148148148148098
931 890 -0.0020032051282051267
931 891 0.00040064102564102552
931 892 0.0058048433048433074
931 893 3.7947076036992655e-19
931 894 8.6736173798840355e-19
931 895 -0.00023148148148147669
931 896 0.0020032051282051272
931 897 -0.00040064102564102758
931 928 0.0044159544159544069
931 929 -2.1684043449710089e-19
931 930 0.0016025641025641021
931 931 0.044586894586894577
932 694 -0.0010016025641025631
932 695 -0.0034989316239316193
932 696 -0.0033386752136752096
932 697 2.439454888092385e-19
932 698 -0.013034188034188026
932 699 -0.013354700854700847
932 700 0.0010016025641025631
932 701 -0.0034989316239316206
932 702 -0.0033386752136752127
932 733 2.439454888092385e-19
932 734 -0.0046474358974358983
932 735 2.7105054312137611e-18
932 736 8.6736173798840355e-19
932 737 -0.014743589743589764
932 738 3.2526065174565133e-18
932 739 -1.2739375526704677e-18
932 740 -0.0046474358974358931
932 741 6.1799523831673753e-18
932 772 0.0010016025641025634
932 773 -0.0034989316239316206
932 774 0.0033386752136752092
932 775 -4.3368086899420177e-19
932 776 -0.013034188034188031
932 777 0.013354700854700854
932 778 -0.0010016025641025638
932 779 -0.0034989316239316241
932 780 0.003338675213675214
932 889 -0.0020032051282051267
932 890 -0.0016559829059829008
932 891 0.00066773504273504015
932 892 -5.4210108624275222e-20
932 893 -0.0047008547008546911
932 894 0.0026709401709401727
932 895 0.0020032051282051267
932 896 -0.0016559829059828988
932 897 0.00066773504273504654
932 928 0
932 929 0.012072649572649559
932 930 8.6736173798840355e-19
932 931 3.4694469519536142e-18
932 932 0.055982905982905964
933 694 -0.0020032051282051285
933 695 -0.0033386752136752096
933 696 -0.0068376068376068324
933 697 1.5178830414797062e-18
933 698 -0.013354700854700847
933 699 -0.026388888888888885
933 700 0.0020032051282051276
933 701 -0.0033386752136752122
933 702 -0.0068376068376068315
933 733 -0.0080128205128205121
933 734 7.589415207398531e-19
933 735 -0.024679487179487168
933 736 4.6620693416876691e-18
933 737 3.0357660829594124e-18
933 738 -0.094871794871794896
933 739 0.0080128205128205086
933 740 5.3125906451789717e-18
933 741 -0.024679487179487168
933 772 -0.0020032051282051272
933 773 0.0033386752136752096
933 774 -0.0068376068376068315
933 775 1.7347234759768071e-18
933 776 0.013354700854700852
933 777 -0.026388888888888882
933 778 0.0020032051282051263
933 779 0.003338675213675214
933 780 -0.0068376068376068298
933 889 -0.00040064102564102557
933 890 -0.00066773504273504264
933 891 0.0050213675213675217
933 892 1.3010426069826053e-18
933 893 -0.0026709401709401667
933 894 0.022008547008547014
933 895 0.00040064102564102384
933 896 -0.00066773504273503917
933 897 0.0050213675213675304
933 928 -0.0016025641025641027
933 929 -1.3010426069826053e-18
933 930 0.025427350427350406
933 931 3.4694469519536142e-18
933 932 -1.8214596497756474e-17
933 933 0.10940170940170937
934 697 -0.0027866809116809154
934 698 -0.0010016025641025634
934 699 -0.0020032051282051289
934 700 -0.0038906695156695182
934 701 -0.0002003205128205123
934 702 -0.00040064102564102443
934 736 -0.0084757834757834931
934 737 -5.9631119486702744e-19
934 738 -0.0080128205128205156
934 739 -0.010220797720797739
934 740 1.3010426069826053e-18
934 741 -0.0016025641025640995
934 775 -0.0027866809116809136
934 776 0.0010016025641025631
934 777 -0.0020032051282051276
934 778 -0.003890669515669519
934 779 0.00020032051282051279
934 780 -0.00040064102564102395
934 892 -0.00023148148148147919
934 893 -0.0020032051282051276
934 894 0.00040064102564102454
934 895 0.0029024216524216589
934 896 -0.00040064102564102481
934 897 0.0020032051282051298
934 931 0.0044159544159544277
934 932 -2.927345865710862e-18
934 933 0.0016025641025640973
934 934 0.022293447293447313
935 697 -0.0010016025641025634
935 698 -0.003498931623931628
935 699 -0.0033386752136752174
935 700 0.00020032051282051306
935 701 -0.0065170940170940174
935 702 -0.0066773504273504314
935 736 -7.3183646642771549e-19
935 737 -0.0046474358974359139
935 738 -3.7947076036992655e-18
935 739 1.0842021724855044e-18
935 740 -0.0073717948717948872
935 741 2.1684043449710089e-19
935 775 0.0010016025641025634
935 776 -0.0034989316239316267
935 777 0.0033386752136752161
935 778 -0.00020032051282051265
935 779 -0.0065170940170940217
935 780 0.0066773504273504305
935 892 -0.0020032051282051276
935 893 -0.0016559829059829075
935 894 0.00066773504273504015
935 895 0.00040064102564102595
935 896 -0.0023504273504273434
935 897 0.00133547008547009
935 931 -2.7647155398380363e-18
935 932 0.012072649572649582
935 933 -2.1684043449710089e-18
935 934 2.6020852139652106e-18
935 935 0.02799145299145302
936 697 -0.0020032051282051289
936 698 -0.0033386752136752179
936 699 -0.0068376068376068532
936 700 0.00040064102564102682
936 701 -0.0066773504273504314
936 702 -0.013194444444444453
936 736 -0.0080128205128205156
936 737 -3.7947076036992655e-18
936 738 -0.024679487179487241
936 739 0.0016025641025641055
936 740 3.6862873864507151e-18
936 741 -0.047435897435897496
936 775 -0.0020032051282051276
936 776 0.0033386752136752157
936 777 -0.0068376068376068489
936 778 0.00040064102564102677
936 779 0.0066773504273504314
936 780 -0.013194444444444451
936 892 -0.00040064102564102677
936 893 -0.00066773504273504643
936 894 0.0050213675213675287
936 895 0.0020032051282051298
936 896 -0.0013354700854700844
936 897 0.011004273504273531
936 931 -0.0016025641025641073
936 932 -4.3368086899420177e-18
936 933 0.025427350427350448
936 934 0.0080128205128205156
936 935 2.6020852139652106e-18
936 936 0.054700854700854784
937 703 -0.0038906695156695138
937 704 0.00020032051282051252
937 705 0.00040064102564102509
937 706 -0.0027866809116809093
937 707 0.0010016025641025634
937 708 0.0020032051282051267
937 742 -0.0051103988603988619
937 743 -0.0010016025641025634
937 744 0.0008012820512820505
937 745 -0.004237891737891737
937 746 -0.00020032051282051298
937 747 0.0040064102564102543
937 898 0.0029024216524216511
937 899 0.00040064102564102509
937 900 -0.0020032051282051276
937 901 -0.00023148148148148038
937 902 0.0020032051282051272
937 903 -0.00040064102564102546
937 937 0.011146723646723646
938 703 -0.00020032051282051276
938 704 -0.006517094017094013
938 705 -0.0066773504273504244
938 706 0.0010016025641025634
938 707 -0.003498931623931621
938 708 -0.0033386752136752122
938 742 -0.0010016025641025631
938 743 -0.0036858974358974375
938 744 -0.001335470085470084
938 745 0.00020032051282051249
938 746 -0.0023237179487179478
938 747 -0.00066773504273504188
938 898 -0.00040064102564102584
938 899 -0.0023504273504273499
938 900 0.0013354700854700851
938 901 0.0020032051282051272
938 902 -0.0016559829059829049
938 903 0.00066773504273504221
938 937 -0.0020032051282051267
938 938 0.013995726495726491
939 703 -0.00040064102564102568
939 704 -0.0066773504273504244
939 705 -0.013194444444444437
939 706 0.0020032051282051267
939 707 -0.0033386752136752122
939 708 -0.0068376068376068324
939 742 -0.00080128205128205093
939 743 0.001335470085470087
939 744 -0.023717948717948713
939 745 0.0040064102564102543
939 746 0.00066773504273504318
939 747 -0.012339743589743584
939 898 -0.0020032051282051276
939 899 -0.0013354700854700853
939 900 0.011004273504273502
939 901 0.00040064102564102541
939 902 -0.00066773504273504253
939 903 0.00502136752136752
939 937 -0.0040064102564102535
939 938 0.0066773504273504227
939 939 0.027350427350427347
940 703 -0.0027866809116809093
940 704 -0.0010016025641025631
940 705 -0.0020032051282051267
940 706 -0.0077813390313390286
940 707 -5.4210108624275222e-20
940 708 1.6263032587282567e-19
940 709 -0.0027866809116809106
940 710 0.0010016025641025634
940 711 0.0020032051282051267
940 742 -0.0042378917378917353
940 743 0.00020032051282051289
940 744 -0.0040064102564102535
940 745 -0.010220797720797722
940 746 2.1684043449710089e-19
940 747 -2.1684043449710089e-19
940 748 -0.004237891737891737
940 749 -0.00020032051282051295
940 750 0.0040064102564102552
940 898 -0.00023148148148148098
940 899 -0.0020032051282051267
940 900 0.00040064102564102546
940 901 0.0058048433048433021
940 902 -8.1315162936412833e-19
940 903 -8.6736173798840355e-19
940 904 -0.00023148148148148035
940 905 0.0020032051282051276
940 906 -0.00040064102564102525
940 937 0.0022079772079772069
940 938 0.00040064102564102519
940 939 0.00080128205128205071
940 940 0.022293447293447288
941 703 -0.0010016025641025631
941 704 -0.003498931623931621
941 705 -0.0033386752136752122
941 706 -5.4210108624275222e-20
941 707 -0.013034188034188026
941 708 -0.013354700854700849
941 709 0.0010016025641025636
941 710 -0.0034989316239316223
941 711 -0.0033386752136752127
941 742 -0.00020032051282051249
941 743 -0.0023237179487179478
941 744 -0.00066773504273504166
941 745 4.3368086899420177e-19
941 746 -0.0073717948717948734
941 747 -0.0026709401709401667
941 748 0.00020032051282051249
941 749 -0.0023237179487179487
941 750 -0.00066773504273504177
941 898 -0.0020032051282051267
941 899 -0.0016559829059829051
941 900 0.00066773504273504231
941 901 -9.7578195523695399e-19
941 902 -0.0047008547008547015
941 903 0.0026709401709401701
941 904 0.0020032051282051272
941 905 -0.0016559829059829051
941 906 0.00066773504273504177
941 937 -0.00040064102564102557
941 938 0.0060363247863247822
941 939 0.0033386752136752109
941 940 4.3368086899420177e-19
941 941 0.027991452991452982
942 703 -0.0020032051282051267
942 704 -0.0033386752136752122
942 705 -0.0068376068376068324
942 706 3.2526065174565133e-19
942 707 -0.013354700854700849
942 708 -0.026388888888888875
942 709 0.0020032051282051272
942 710 -0.0033386752136752127
942 711 -0.0068376068376068359
942 742 -0.0040064102564102543
942 743 0.00066773504273504318
942 744 -0.012339743589743582
942 745 3.2526065174565133e-19
942 746 0.0026709401709401732
942 747 -0.047435897435897427
942 748 0.0040064102564102543
942 749 0.0006677350427350434
942 750 -0.012339743589743588
942 898 -0.00040064102564102546
942 899 -0.00066773504273504231
942 900 0.00502136752136752
942 901 -8.6736173798840355e-19
942 902 -0.0026709401709401706
942 903 0.022008547008547007
942 904 0.00040064102564102557
942 905 -0.00066773504273504318
942 906 0.0050213675213675209
942 937 -0.0008012820512820506
942 938 0.0033386752136752114
942 939 0.012713675213675205
942 940 -8.6736173798840355e-19
942 941 0.013354700854700849
942 942 0.05470085470085468
943 706 -0.0027866809116809089
943 707 -0.0010016025641025634
943 708 -0.0020032051282051263
943 709 -0.0077813390313390294
943 710 0
943 711 2.7105054312137611e-19
943 712 -0.0027866809116809102
943 713 0.0010016025641025634
943 714 0.0020032051282051272
943 745 -0.0042378917378917353
943 746 0.00020032051282051289
943 747 -0.0040064102564102535
943 748 -0.010220797720797724
943 749 2.1684043449710089e-19
943 750 1.0842021724855044e-19
943 751 -0.0042378917378917361
943 752 -0.00020032051282051306
943 753 0.0040064102564102552
943 901 -0.00023148148148148087
943 902 -0.0020032051282051272
943 903 0.00040064102564102557
943 904 0.0058048433048433021
943 905 -3.7947076036992655e-19
943 906 -1.3010426069826053e-18
943 907 -0.00023148148148148014
943 908 0.0020032051282051276
943 909 -0.00040064102564102584
943 940 0.0022079772079772087
943 941 0.00040064102564102514
943 942 0.00080128205128205093
943 943 0.022293447293447288
944 706 -0.0010016025641025631
944 707 -0.0034989316239316202
944 708 -0.0033386752136752122
944 709 -2.7105054312137611e-20
944 710 -0.01303418803418803
944 711 -0.013354700854700852
944 712 0.0010016025641025636
944 713 -0.0034989316239316215
944 714 -0.0033386752136752122
944 745 -0.00020032051282051243
944 746 -0.002323717948717947
944 747 -0.00066773504273504145
944 748 4.3368086899420177e-19
944 749 -0.0073717948717948751
944 750 -0.0026709401709401693
944 751 0.00020032051282051241
944 752 -0.0023237179487179478
944 753 -0.00066773504273504156
944 901 -0.0020032051282051272
944 902 -0.0016559829059829051
944 903 0.00066773504273504318
944 904 -8.1315162936412833e-19
944 905 -0.0047008547008547032
944 906 0.0026709401709401701
944 907 0.0020032051282051276
944 908 -0.0016559829059829051
944 909 0.00066773504273504264
944 940 -0.00040064102564102563
944 941 0.006036324786324784
944 942 0.0033386752136752122
944 943 0
944 944 0.027991452991452982
945 706 -0.0020032051282051267
945 707 -0.0033386752136752122
945 708 -0.0068376068376068307
945 709 3.2526065174565133e-19
945 710 -0.013354700854700852
945 711 -0.026388888888888878
945 712 0.0020032051282051267
945 713 -0.0033386752136752122
945 714 -0.0068376068376068333
945 745 -0.0040064102564102543
945 746 0.00066773504273504362
945 747 -0.012339743589743582
945 748 3.2526065174565133e-19
945 749 0.0026709401709401719
945 750 -0.047435897435897434
945 751 0.0040064102564102543
945 752 0.00066773504273504394
945 753 -0.012339743589743586
945 901 -0.0004006410256410253
945 902 -0.00066773504273504188
945 903 0.00502136752136752
945 904 -8.6736173798840355e-19
945 905 -0.002670940170940171
945 906 0.022008547008547007
945 907 0.00040064102564102514
945 908 -0.00066773504273504264
945 909 0.0050213675213675217
945 940 -0.00080128205128205028
945 941 0.0033386752136752114
945 942 0.01271367521367521
945 943 -8.6736173798840355e-19
945 944 0.013354700854700849
945 945 0.054700854700854687
946 709 -0.0027866809116809102
946 710 -0.0010016025641025634
946 711 -0.0020032051282051272
946 712 -0.0077813390313390268
946 713 -1.6263032587282567e-19
946 714 0
946 715 -0.0027866809116809093
946 716 0.0010016025641025634
946 717 0.0020032051282051267
946 748 -0.004237891737891737
946 749 0.00020032051282051287
946 750 -0.0040064102564102543
946 751 -0.01022079772079772
946 752 4.3368086899420177e-19
946 753 -6.5052130349130266e-19
946 754 -0.004237891737891737
946 755 -0.000200320512820513
946 756 0.0040064102564102543
946 904 -0.00023148148148148095
946 905 -0.0020032051282051272
946 906 0.00040064102564102536
946 907 0.0058048433048433021
946 908 -6.5052130349130266e-19
946 909 0
946 910 -0.00023148148148148089
946 911 0.0020032051282051276
946 912 -0.00040064102564102536
946 943 0.0022079772079772091
946 944 0.00040064102564102525
946 945 0.00080128205128205017
946 946 0.022293447293447288
947 709 -0.0010016025641025634
947 710 -0.0034989316239316223
947 711 -0.0033386752136752131
947 712 0
947 713 -0.013034188034188026
947 714 -0.013354700854700849
947 715 0.0010016025641025636
947 716 -0.0034989316239316202
947 717 -0.0033386752136752105
947 748 -0.00020032051282051249
947 749 -0.0023237179487179483
947 750 -0.00066773504273504231
947 751 6.5052130349130266e-19
947 752 -0.0073717948717948716
947 753 -0.0026709401709401684
947 754 0.00020032051282051243
947 755 -0.0023237179487179487
947 756 -0.0006677350427350421
947 904 -0.0020032051282051272
947 905 -0.0016559829059829055
947 906 0.00066773504273504188
947 907 -5.9631119486702744e-19
947 908 -0.0047008547008547015
947 909 0.0026709401709401693
947 910 0.0020032051282051272
947 911 -0.0016559829059829051
947 912 0.00066773504273504156
947 943 -0.00040064102564102568
947 944 0.0060363247863247857
947 945 0.0033386752136752135
947 946 8.6736173798840355e-19
947 947 0.027991452991452982
948 709 -0.0020032051282051272
948 710 -0.0033386752136752131
948 711 -0.006837606837606835
948 712 2.1684043449710089e-19
948 713 -0.013354700854700849
948 714 -0.026388888888888871
948 715 0.0020032051282051267
948 716 -0.0033386752136752105
948 717 -0.0068376068376068307
948 748 -0.0040064102564102552
948 749 0.00066773504273504318
948 750 -0.012339743589743589
948 751 -1.0842021724855044e-19
948 752 0.0026709401709401719
948 753 -0.04743589743589742
948 754 0.0040064102564102543
948 755 0.00066773504273504264
948 756 -0.012339743589743584
948 904 -0.0004006410256410259
948 905 -0.00066773504273504296
948 906 0.0050213675213675217
948 907 -4.3368086899420177e-19
948 908 -0.002670940170940171
948 909 0.022008547008547007
948 910 0.00040064102564102546
948 911 -0.00066773504273504318
948 912 0.0050213675213675183
948 943 -0.00080128205128205136
948 944 0.0033386752136752131
948 945 0.012713675213675214
948 946 8.6736173798840355e-19
948 947 0.013354700854700849
948 948 0.054700854700854673
949 712 -0.0027866809116809084
949 713 -0.0010016025641025631
949 714 -0.0020032051282051263
949 715 -0.0077813390313390286
949 716 -1.0842021724855044e-19
949 717 3.2526065174565133e-19
949 718 -0.0027866809116809102
949 719 0.0010016025641025634
949 720 0.0020032051282051267
949 751 -0.0042378917378917335
949 752 0.00020032051282051295
949 753 -0.0040064102564102535
949 754 -0.01022079772079772
949 755 6.5052130349130266e-19
949 756 0
949 757 -0.0042378917378917361
949 758 -0.000200320512820513
949 759 0.0040064102564102535
949 907 -0.00023148148148148146
949 908 -0.0020032051282051267
949 909 0.00040064102564102568
949 910 0.0058048433048432987
949 911 -8.1315162936412833e-19
949 912 -4.3368086899420177e-19
949 913 -0.00023148148148147883
949 914 0.0020032051282051272
949 915 -0.00040064102564102579
949 946 0.0022079772079772065
949 947 0.00040064102564102509
949 948 0.00080128205128205125
949 949 0.022293447293447278
950 712 -0.0010016025641025631
950 713 -0.0034989316239316197
950 714 -0.0033386752136752109
950 715 -1.0842021724855044e-19
950 716 -0.013034188034188028
950 717 -0.013354700854700849
950 718 0.0010016025641025634
950 719 -0.0034989316239316219
950 720 -0.0033386752136752131
950 751 -0.00020032051282051243
950 752 -0.0023237179487179452
950 753 -0.00066773504273504156
950 754 4.3368086899420177e-19
950 755 -0.0073717948717948734
950 756 -0.0026709401709401706
950 757 0.00020032051282051235
950 758 -0.002323717948717947
950 759 -0.00066773504273504221
950 907 -0.0020032051282051267
950 908 -0.0016559829059829051
950 909 0.00066773504273504231
950 910 -9.7578195523695399e-19
950 911 -0.0047008547008547067
950 912 0.0026709401709401697
950 913 0.0020032051282051267
950 914 -0.0016559829059829051
950 915 0.00066773504273504318
950 946 -0.00040064102564102557
950 947 0.0060363247863247814
950 948 0.0033386752136752114
950 949 8.6736173798840355e-19
950 950 0.027991452991452975
951 712 -0.0020032051282051267
951 713 -0.0033386752136752105
951 714 -0.0068376068376068289
951 715 3.7947076036992655e-19
951 716 -0.013354700854700849
951 717 -0.026388888888888875
951 718 0.0020032051282051263
951 719 -0.0033386752136752127
951 720 -0.006837606837606835
951 751 -0.0040064102564102543
951 752 0.00066773504273504253
951 753 -0.012339743589743574
951 754 -3.2526065174565133e-19
951 755 0.0026709401709401693
951 756 -0.04743589743589742
951 757 0.0040064102564102535
951 758 0.00066773504273504372
951 759 -0.012339743589743586
951 907 -0.00040064102564102525
951 908 -0.00066773504273504231
951 909 0.0050213675213675174
951 910 -8.6736173798840355e-19
951 911 -0.0026709401709401719
951 912 0.022008547008547
951 913 0.00040064102564102503
951 914 -0.00066773504273504253
951 915 0.0050213675213675235
951 946 -0.00080128205128204995
951 947 0.0033386752136752114
951 948 0.012713675213675205
951 949 0
951 950 0.013354700854700845
951 951 0.054700854700854659
952 715 -0.002786680911680911
952 716 -0.0010016025641025631
952 717 -0.0020032051282051267
952 718 -0.0077813390313390294
952 719 -1.3552527156068805e-19
952 720 5.4210108624275222e-20
952 721 -0.0027866809116809102
952 722 0.0010016025641025634
952 723 0.0020032051282051263
952 754 -0.004237891737891737
952 755 0.00020032051282051273
952 756 -0.0040064102564102543
952 757 -0.010220797720797726
952 758 2.1684043449710089e-19
952 759 7.589415207398531e-19
952 760 -0.0042378917378917335
952 761 -0.00020032051282051281
952 762 0.0040064102564102543
952 910 -0.00023148148148147973
952 911 -0.0020032051282051267
952 912 0.00040064102564102514
952 913 0.0058048433048433021
952 914 -6.5052130349130266e-19
952 915 0
952 916 -0.00023148148148148065
952 917 0.0020032051282051276
952 918 -0.00040064102564102546
952 949 0.0022079772079772134
952 950 0.00040064102564102492
952 951 0.00080128205128204984
952 952 0.022293447293447285
953 715 -0.0010016025641025631
953 716 -0.0034989316239316232
953 717 -0.003338675213675214
953 718 -1.0842021724855044e-19
953 719 -0.01303418803418803
953 720 -0.013354700854700851
953 721 0.0010016025641025636
953 722 -0.0034989316239316215
953 723 -0.0033386752136752118
953 754 -0.0002003205128205126
953 755 -0.0023237179487179487
953 756 -0.0006677350427350434
953 757 2.1684043449710089e-19
953 758 -0.007371794871794876
953 759 -0.0026709401709401701
953 760 0.00020032051282051262
953 761 -0.0023237179487179457
953 762 -0.00066773504273504188
953 910 -0.0020032051282051267
953 911 -0.0016559829059829064
953 912 0.0006677350427350421
953 913 -7.589415207398531e-19
953 914 -0.0047008547008547015
953 915 0.0026709401709401719
953 916 0.0020032051282051272
953 917 -0.0016559829059829055
953 918 0.00066773504273504134
953 949 -0.00040064102564102579
953 950 0.0060363247863247909
953 951 0.0033386752136752153
953 952 0
953 953 0.027991452991452982
954 715 -0.0020032051282051267
954 716 -0.003338675213675214
954 717 -0.0068376068376068376
954 718 4.3368086899420177e-19
954 719 -0.013354700854700849
954 720 -0.026388888888888878
954 721 0.0020032051282051263
954 722 -0.0033386752136752118
954 723 -0.0068376068376068315
954 754 -0.0040064102564102543
954 755 0.00066773504273504307
954 756 -0.012339743589743593
954 757 7.589415207398531e-19
954 758 0.0026709401709401723
954 759 -0.047435897435897434
954 760 0.0040064102564102535
954 761 0.00066773504273504264
954 762 -0.012339743589743575
954 910 -0.00040064102564102584
954 911 -0.00066773504273504372
954 912 0.0050213675213675235
954 913 0
954 914 -0.0026709401709401701
954 915 0.022008547008547007
954 916 0.00040064102564102519
954 917 -0.00066773504273504329
954 918 0.00502136752136752
954 949 -0.00080128205128205136
954 950 0.0033386752136752153
954 951 0.012713675213675221
954 952 8.6736173798840355e-19
954 953 0.013354700854700849
954 954 0.054700854700854673
955 718 -0.0027866809116809093
955 719 -0.0010016025641025631
955 720 -0.0020032051282051267
955 721 -0.0077813390313390303
955 722 -1.6263032587282567e-19
955 723 0
955 724 -0.0027866809116809115
955 725 0.0010016025641025634
955 726 0.0020032051282051272
955 757 -0.0042378917378917379
955 758 0.00020032051282051303
955 759 -0.0040064102564102543
955 760 -0.010220797720797727
955 761 4.3368086899420177e-19
955 762 3.2526065174565133e-19
955 763 -0.0042378917378917396
955 764 -0.00020032051282051317
955 765 0.0040064102564102552
955 913 -0.00023148148148148068
955 914 -0.0020032051282051267
955 915 0.00040064102564102536
955 916 0.0058048433048433021
955 917 -6.5052130349130266e-19
955 918 -8.6736173798840355e-19
955 919 -0.00023148148148147808
955 920 0.0020032051282051272
955 921 -0.00040064102564102503
955 952 0.0022079772079772091
955 953 0.00040064102564102552
955 954 0.00080128205128204952
955 955 0.022293447293447288
956 718 -0.0010016025641025629
956 719 -0.0034989316239316197
956 720 -0.0033386752136752109
956 721 -5.4210108624275222e-20
956 722 -0.01303418803418803
956 723 -0.013354700854700852
956 724 0.0010016025641025634
956 725 -0.0034989316239316232
956 726 -0.0033386752136752135
956 757 -0.0002003205128205123
956 758 -0.00232371794871795
956 759 -0.00066773504273504058
956 760 4.3368086899420177e-19
956 761 -0.0073717948717948777
956 762 -0.0026709401709401675
956 763 0.00020032051282051233
956 764 -0.0023237179487179517
956 765 -0.00066773504273504058
956 913 -0.0020032051282051267
956 914 -0.001655982905982904
956 915 0.00066773504273504123
956 916 -7.589415207398531e-19
956 917 -0.0047008547008547032
956 918 0.0026709401709401675
956 919 0.0020032051282051267
956 920 -0.0016559829059829027
956 921 0.00066773504273504112
956 952 -0.0004006410256410253
956 953 0.0060363247863247848
956 954 0.0033386752136752118
956 955 8.6736173798840355e-19
956 956 0.027991452991452986
957 718 -0.0020032051282051267
957 719 -0.0033386752136752114
957 720 -0.0068376068376068315
957 721 1.6263032587282567e-19
957 722 -0.013354700854700852
957 723 -0.026388888888888882
957 724 0.0020032051282051272
957 725 -0.003338675213675214
957 726 -0.0068376068376068402
957 757 -0.0040064102564102552
957 758 0.0006677350427350447
957 759 -0.012339743589743593
957 760 6.5052130349130266e-19
957 761 0.0026709401709401736
957 762 -0.047435897435897441
957 763 0.0040064102564102543
957 764 0.00066773504273504513
957 765 -0.0123397435897436
957 913 -0.00040064102564102541
957 914 -0.00066773504273504372
957 915 0.00502136752136752
957 916 -1.3010426069826053e-18
957 917 -0.0026709401709401736
957 918 0.02200854700854701
957 919 0.00040064102564102563
957 920 -0.00066773504273504448
957 921 0.0050213675213675269
957 952 -0.00080128205128205201
957 953 0.0033386752136752122
957 954 0.012713675213675215
957 955 0
957 956 0.013354700854700851
957 957 0.054700854700854701
958 721 -0.0027866809116809093
958 722 -0.0010016025641025631
958 723 -0.0020032051282051263
958 724 -0.0077813390313390251
958 725 -2.9815559743351372e-19
958 726 1.0842021724855044e-19
958 727 -0.0027866809116809071
958 728 0.0010016025641025636
958 729 0.0020032051282051263
958 760 -0.0042378917378917353
958 761 0.00020032051282051265
958 762 -0.0040064102564102543
958 763 -0.010220797720797717
958 764 2.1684043449710089e-19
958 765 1.0842021724855044e-18
958 766 -0.0042378917378917283
958 767 -0.00020032051282051246
958 768 0.0040064102564102526
958 916 -0.00023148148148147943
958 917 -0.0020032051282051272
958 918 0.0004006410256410259
958 919 0.0058048433048432987
958 920 -1.1926223897340549e-18
958 921 -4.3368086899420177e-19
958 922 -0.00023148148148148314
958 923 0.0020032051282051276
958 924 -0.00040064102564102595
958 955 0.0022079772079772121
958 956 0.0004006410256410246
958 957 0.00080128205128205147
958 958 0.022293447293447274
959 721 -0.0010016025641025631
959 722 -0.0034989316239316223
959 723 -0.0033386752136752135
959 724 -1.3552527156068805e-19
959 725 -0.013034188034188023
959 726 -0.013354700854700847
959 727 0.0010016025641025634
959 728 -0.003498931623931618
959 729 -0.0033386752136752075
959 760 -0.00020032051282051271
959 761 -0.0023237179487179478
959 762 -0.00066773504273504242
959 763 2.1684043449710089e-19
959 764 -0.0073717948717948673
959 765 -0.0026709401709401701
959 766 0.00020032051282051292
959 767 -0.0023237179487179396
959 768 -0.0006677350427350434
959 916 -0.0020032051282051272
959 917 -0.0016559829059829064
959 918 0.00066773504273504372
959 919 -1.3552527156068805e-18
959 920 -0.0047008547008547015
959 921 0.0026709401709401688
959 922 0.0020032051282051276
959 923 -0.0016559829059829079
959 924 0.00066773504273504394
959 955 -0.00040064102564102601
959 956 0.0060363247863247874
959 957 0.003338675213675214
959 958 0
959 959 0.027991452991452972
960 721 -0.0020032051282051267
960 722 -0.003338675213675214
960 723 -0.0068376068376068333
960 724 4.3368086899420177e-19
960 725 -0.013354700854700845
960 726 -0.026388888888888865
960 727 0.0020032051282051267
960 728 -0.0033386752136752075
960 729 -0.0068376068376068229
960 760 -0.0040064102564102543
960 761 0.00066773504273504275
960 762 -0.012339743589743586
960 763 1.4094628242311558e-18
960 764 0.0026709401709401693
960 765 -0.047435897435897406
960 766 0.0040064102564102526
960 767 0.00066773504273504015
960 768 -0.012339743589743555
960 916 -0.00040064102564102509
960 917 -0.00066773504273504253
960 918 0.0050213675213675261
960 919 -4.3368086899420177e-19
960 920 -0.0026709401709401675
960 921 0.022008547008546986
960 922 0.00040064102564102481
960 923 -0.00066773504273503971
960 924 0.0050213675213675139
960 955 -0.00080128205128204995
960 956 0.0033386752136752135
960 957 0.012713675213675219
960 958 1.7347234759768071e-18
960 959 0.013354700854700845
960 960 0.054700854700854645
961 724 -0.0027866809116809071
961 725 -0.0010016025641025629
961 726 -0.0020032051282051272
961 727 -0.0077813390313390242
961 728 -6.2341624917916505e-19
961 729 -3.2526065174565133e-19
961 730 -0.0027866809116809132
961 731 0.0010016025641025636
961 732 0.0020032051282051272
961 763 -0.004237891737891737
961 764 0.0002003205128205133
961 765 -0.0040064102564102543
961 766 -0.010220797720797713
961 767 -6.5052130349130266e-19
961 768 -1.1926223897340549e-18
961 769 -0.0042378917378917465
961 770 -0.00020032051282051257
961 771 0.0040064102564102569
961 919 -0.00023148148148148125
961 920 -0.0020032051282051259
961 921 0.00040064102564102514
961 922 0.0058048433048433047
961 923 -1.8973538018496328e-18
961 924 -1.3010426069826053e-18
961 925 -0.00023148148148148184
961 926 0.002003205128205128
961 927 -0.00040064102564102438
961 958 0.0022079772079771987
961 959 0.00040064102564102639
961 960 0.00080128205128204833
961 961 0.022293447293447292
962 724 -0.0010016025641025627
962 725 -0.0034989316239316167
962 726 -0.0033386752136752062
962 727 -5.6920614055488983e-19
962 728 -0.013034188034188021
962 729 -0.013354700854700845
962 730 0.0010016025641025638
962 731 -0.0034989316239316258
962 732 -0.0033386752136752161
962 763 -0.00020032051282051203
962 764 -0.0023237179487179491
962 765 -0.00066773504273503895
962 766 -4.3368086899420177e-19
962 767 -0.0073717948717948673
962 768 -0.0026709401709401641
962 769 0.00020032051282051281
962 770 -0.0023237179487179591
962 771 -0.00066773504273504448
962 919 -0.0020032051282051259
962 920 -0.001655982905982899
962 921 0.00066773504273504188
962 922 -2.0057740190981832e-18
962 923 -0.0047008547008546963
962 924 0.0026709401709401667
962 925 0.0020032051282051276
962 926 -0.0016559829059829101
962 927 0.00066773504273503776
962 958 -0.00040064102564102433
962 959 0.0060363247863247736
962 960 0.003338675213675207
962 961 -1.7347234759768071e-18
962 962 0.027991452991452986
963 724 -0.0020032051282051272
963 725 -0.0033386752136752062
963 726 -0.0068376068376068289
963 727 -5.4210108624275222e-20
963 728 -0.013354700854700845
963 729 -0.026388888888888858
963 730 0.0020032051282051276
963 731 -0.0033386752136752161
963 732 -0.0068376068376068445
963 763 -0.0040064102564102552
963 764 0.00066773504273504481
963 765 -0.012339743589743588
963 766 -9.7578195523695399e-19
963 767 0.002670940170940174
963 768 -0.047435897435897406
963 769 0.0040064102564102569
963 770 0.00066773504273504177
963 771 -0.012339743589743622
963 919 -0.00040064102564102584
963 920 -0.00066773504273504177
963 921 0.0050213675213675174
963 922 -1.7347234759768071e-18
963 923 -0.0026709401709401736
963 924 0.022008547008547007
963 925 0.00040064102564102649
963 926 -0.00066773504273504817
963 927 0.0050213675213675165
963 958 -0.0008012820512820531
963 959 0.0033386752136752092
963 960 0.012713675213675186
963 961 -3.4694469519536142e-18
963 962 0.013354700854700851
963 963 0.054700854700854708
964 727 -0.0027866809116809076
964 728 -0.0010016025641025631
964 729 -0.0020032051282051263
964 730 -0.0077813390313390329
964 731 -2.7105054312137611e-20
964 732 2.7105054312137611e-19
964 733 -0.0027866809116809084
964 734 0.0010016025641025631
964 735 0.0020032051282051263
964 766 -0.0042378917378917266
964 767 0.00020032051282051325
964 768 -0.0040064102564102517
964 769 -0.010220797720797731
964 770 6.5052130349130266e-19
964 771 3.2526065174565133e-19
964 772 -0.0042378917378917283
964 773 -0.00020032051282051338
964 774 0.0040064102564102517
964 922 -0.00023148148148148054
964 923 -0.0020032051282051263
964 924 0.00040064102564102644
964 925 0.0058048433048433004
964 926 -7.589415207398531e-19
964 927 -4.3368086899420177e-19
964 928 -0.00023148148148147854
964 929 0.0020032051282051267
964 930 -0.00040064102564102644
964 961 0.0022079772079772117
964 962 0.00040064102564102595
964 963 0.00080128205128205548
964 964 0.022293447293447274
965 727 -0.0010016025641025631
965 728 -0.0034989316239316189
965 729 -0.0033386752136752114
965 730 -5.4210108624275222e-20
965 731 -0.013034188034188033
965 732 -0.013354700854700854
965 733 0.0010016025641025631
965 734 -0.0034989316239316202
965 735 -0.0033386752136752118
965 766 -0.00020032051282051214
965 767 -0.0023237179487179392
965 768 -0.00066773504273503971
965 769 6.5052130349130266e-19
965 770 -0.0073717948717948803
965 771 -0.0026709401709401736
965 772 0.00020032051282051203
965 773 -0.00232371794871794
965 774 -0.00066773504273504058
965 922 -0.0020032051282051267
965 923 -0.001655982905982904
965 924 0.00066773504273504221
965 925 -8.6736173798840355e-19
965 926 -0.0047008547008547067
965 927 0.002670940170940174
965 928 0.0020032051282051267
965 929 -0.0016559829059829027
965 930 0.00066773504273504492
965 961 -0.00040064102564102481
965 962 0.0060363247863247866
965 963 0.0033386752136752127
965 964 8.6736173798840355e-19
965 965 0.027991452991452975
966 727 -0.0020032051282051263
966 728 -0.0033386752136752114
966 729 -0.0068376068376068263
966 730 1.0842021724855044e-19
966 731 -0.013354700854700854
966 732 -0.026388888888888892
966 733 0.0020032051282051267
966 734 -0.0033386752136752109
966 735 -0.0068376068376068307
966 766 -0.0040064102564102517
966 767 0.00066773504273504437
966 768 -0.012339743589743555
966 769 1.0842021724855044e-19
966 770 0.0026709401709401693
966 771 -0.047435897435897462
966 772 0.0040064102564102509
966 773 0.00066773504273504437
966 774 -0.012339743589743563
966 922 -0.00040064102564102433
966 923 -0.00066773504273504134
966 924 0.0050213675213675174
966 925 -8.6736173798840355e-19
966 926 -0.0026709401709401684
966 927 0.022008547008547007
966 928 0.00040064102564102443
966 929 -0.00066773504273503928
966 930 0.0050213675213675235
966 961 -0.00080128205128204594
966 962 0.0033386752136752114
966 963 0.012713675213675219
966 964 0
966 965 0.013354700854700845
966 966 0.054700854700854645
967 730 -0.0027866809116809128
967 731 -0.0010016025641025634
967 732 -0.0020032051282051272
967 733 -0.0077813390313390268
967 734 1.0842021724855044e-19
967 735 7.0473141211557788e-19
967 736 -0.002786680911680908
967 737 0.0010016025641025634
967 738 0.0020032051282051267
967 769 -0.0042378917378917465
967 770 0.00020032051282051241
967 771 -0.0040064102564102569
967 772 -0.010220797720797724
967 773 6.5052130349130266e-19
967 774 1.1926223897340549e-18
967 775 -0.0042378917378917413
967 776 -0.00020032051282051298
967 777 0.0040064102564102569
967 925 -0.00023148148148148084
967 926 -0.0020032051282051272
967 927 0.00040064102564102454
967 928 0.0058048433048433039
967 929 -1.6263032587282567e-19
967 930 4.3368086899420177e-19
967 931 -0.00023148148148148098
967 932 0.0020032051282051276
967 933 -0.00040064102564102584
967 964 0.0022079772079772095
967 965 0.00040064102564102422
967 966 0.00080128205128204583
967 967 0.022293447293447302
968 730 -0.0010016025641025634
968 731 -0.0034989316239316258
968 732 -0.0033386752136752157
968 733 1.3552527156068805e-19
968 734 -0.013034188034188028
968 735 -0.013354700854700852
968 736 0.0010016025641025634
968 737 -0.0034989316239316184
968 738 -0.0033386752136752092
968 769 -0.00020032051282051292
968 770 -0.0023237179487179591
968 771 -0.000667735042735046
968 772 6.5052130349130266e-19
968 773 -0.0073717948717948742
968 774 -0.0026709401709401649
968 775 0.00020032051282051249
968 776 -0.0023237179487179535
968 777 -0.00066773504273504058
968 925 -0.0020032051282051272
968 926 -0.0016559829059829092
968 927 0.0006677350427350421
968 928 -4.87890977618477e-19
968 929 -0.004700854700854698
968 930 0.0026709401709401641
968 931 0.0020032051282051276
968 932 -0.0016559829059829029
968 933 0.0006677350427350421
968 964 -0.00040064102564102639
968 965 0.0060363247863247857
968 966 0.0033386752136752122
968 967 8.6736173798840355e-19
968 968 0.027991452991453003
969 730 -0.0020032051282051272
969 731 -0.0033386752136752161
969 732 -0.0068376068376068437
969 733 8.1315162936412833e-19
969 734 -0.013354700854700852
969 735 -0.026388888888888875
969 736 0.0020032051282051272
969 737 -0.0033386752136752101
969 738 -0.0068376068376068289
969 769 -0.0040064102564102561
969 770 0.00066773504273504112
969 771 -0.012339743589743629
969 772 1.5178830414797062e-18
969 773 0.0026709401709401771
969 774 -0.047435897435897434
969 775 0.0040064102564102561
969 776 0.00066773504273504383
969 777 -0.012339743589743601
969 925 -0.00040064102564102644
969 926 -0.00066773504273504492
969 927 0.0050213675213675209
969 928 0
969 929 -0.0026709401709401762
969 930 0.02200854700854701
969 931 0.00040064102564102487
969 932 -0.00066773504273504329
969 933 0.00502136752136752
969 964 -0.00080128205128205559
969 965 0.0033386752136752131
969 966 0.012713675213675207
969 967 0
969 968 0.013354700854700859
969 969 0.054700854700854749
970 733 -0.0027866809116809089
970 734 -0.0010016025641025631
970 735 -0.0020032051282051272
970 736 -0.0077813390313390286
970 737 5.4210108624275222e-20
970 738 8.6736173798840355e-19
970 739 -0.002786680911680908
970 740 0.0010016025641025631
970 741 0.0020032051282051259
970 772 -0.0042378917378917283
970 773 0.00020032051282051289
970 774 -0.0040064102564102535
970 775 -0.010220797720797724
970 776 1.0842021724855044e-18
970 777 -4.3368086899420177e-19
970 778 -0.0042378917378917318
970 779 -0.00020032051282051349
970 780 0.0040064102564102526
970 928 -0.00023148148148148154
970 929 -0.0020032051282051267
970 930 0.00040064102564102514
970 931 0.0058048433048433004
970 932 -3.2526065174565133e-19
970 933 1.7347234759768071e-18
970 934 -0.00023148148148147726
970 935 0.0020032051282051267
970 936 -0.00040064102564102709
970 967 0.0022079772079772061
970 968 0.00040064102564102525
970 969 0.00080128205128205429
970 970 0.022293447293447271
971 733 -0.0010016025641025631
971 734 -0.0034989316239316193
971 735 -0.0033386752136752105
971 736 5.4210108624275222e-20
971 737 -0.013034188034188026
971 738 -0.013354700854700849
971 739 0.0010016025641025631
971 740 -0.0034989316239316202
971 741 -0.0033386752136752122
971 772 -0.00020032051282051243
971 773 -0.0023237179487179418
971 774 -0.00066773504273504025
971 775 8.6736173798840355e-19
971 776 -0.007371794871794876
971 777 -0.002670940170940171
971 778 0.000200320512820512
971 779 -0.0023237179487179444
971 780 -0.00066773504273503982
971 928 -0.0020032051282051272
971 929 -0.0016559829059829031
971 930 0.0006677350427350396
971 931 -4.3368086899420177e-19
971 932 -0.0047008547008547041
971 933 0.0026709401709401719
971 934 0.0020032051282051267
971 935 -0.0016559829059829021
971 936 0.00066773504273504633
971 967 -0.00040064102564102546
971 968 0.0060363247863247822
971 969 0.0033386752136752114
971 970 1.7347234759768071e-18
971 971 0.027991452991452968
972 733 -0.0020032051282051272
972 734 -0.0033386752136752101
972 735 -0.0068376068376068315
972 736 1.0842021724855044e-18
972 737 -0.013354700854700849
972 738 -0.026388888888888878
972 739 0.0020032051282051259
972 740 -0.0033386752136752122
972 741 -0.0068376068376068289
972 772 -0.0040064102564102535
972 773 0.00066773504273504307
972 774 -0.012339743589743556
972 775 0
972 776 0.0026709401709401693
972 777 -0.047435897435897434
972 778 0.0040064102564102526
972 779 0.00066773504273504502
972 780 -0.012339743589743577
972 928 -0.00040064102564102579
972 929 -0.00066773504273504329
972 930 0.0050213675213675191
972 931 1.3010426069826053e-18
972 932 -0.0026709401709401675
972 933 0.022008547008547
972 934 0.000400641025641024
972 935 -0.00066773504273503928
972 936 0.0050213675213675261
972 967 -0.00080128205128204778
972 968 0.0033386752136752105
972 969 0.01271367521367521
972 970 8.6736173798840355e-19
972 971 0.013354700854700838
972 972 0.054700854700854638
973 736 -0.0027866809116809141
973 737 -0.0010016025641025631
973 738 -0.0020032051282051276
973 739 -0.0038906695156695182
973 740 -0.00020032051282051243
973 741 -0.00040064102564102438
973 775 -0.0042378917378917431
973 776 0.00020032051282051243
973 777 -0.0040064102564102552
973 778 -0.0051103988603988645
973 779 0.0010016025641025642
973 780 -0.00080128205128204919
973 931 -0.00023148148148148043
973 932 -0.0020032051282051272
973 933 0.00040064102564102389
973 934 0.0029024216524216545
973 935 -0.00040064102564102503
973 936 0.0020032051282051285
973 970 0.0022079772079772126
973 971 0.00040064102564102384
973 972 0.000801282051282048
973 973 0.011146723646723653
974 736 -0.0010016025641025634
974 737 -0.0034989316239316284
974 738 -0.0033386752136752183
974 739 0.00020032051282051298
974 740 -0.0065170940170940191
974 741 -0.0066773504273504323
974 775 -0.00020032051282051298
974 776 -0.0023237179487179552
974 777 -0.00066773504273504568
974 778 0.001001602564102564
974 779 -0.0036858974358974362
974 780 -0.0013354700854700842
974 931 -0.0020032051282051272
974 932 -0.0016559829059829109
974 933 0.00066773504273504015
974 934 0.00040064102564102579
974 935 -0.0023504273504273503
974 936 0.0013354700854700887
974 970 -0.00040064102564102671
974 971 0.0060363247863247883
974 972 0.0033386752136752131
974 973 0.002003205128205128
974 974 0.013995726495726512
975 736 -0.0020032051282051276
975 737 -0.0033386752136752183
975 738 -0.0068376068376068497
975 739 0.00040064102564102639
975 740 -0.0066773504273504323
975 741 -0.013194444444444451
975 775 -0.0040064102564102561
975 776 0.00066773504273504112
975 777 -0.012339743589743615
975 778 0.00080128205128205277
975 779 0.00133547008547009
975 780 -0.023717948717948731
975 931 -0.00040064102564102698
975 932 -0.00066773504273504643
975 933 0.0050213675213675243
975 934 0.002003205128205128
975 935 -0.0013354700854700855
975 936 0.011004273504273522
975 970 -0.00080128205128205331
975 971 0.003338675213675214
975 972 0.012713675213675219
975 973 0.0040064102564102561
975 974 0.0066773504273504375
975 975 0.027350427350427382
