%%MatrixMarket matrix coordinate real symmetric
% lower triangle only; row and column indices are 1-based per MatrixMarket convention
1032 1032 17445
1 1 0.02269111828932082
2 1 0.0095720204284864222
2 2 0.022665385695539848
3 1 0.0046932828471240567
3 2 0.0046932828471240532
3 3 0.018417436080584337
4 4 0.022636130242669243
5 4 -0.0094792684446491828
5 5 0.02263613024266925
6 4 -0.0047133126662059913
6 5 0.004713312666205987
6 6 0.018445941544104557
7 7 0.022751046701278872
8 7 0.0096422172726176487
8 8 0.022674834432375092
9 7 -0.0046780086761755687
9 8 -0.0046780086761755643
9 9 0.018397369315838959
10 10 0.022775774397017022
11 10 -0.0097447037373513054
11 11 0.022747982619165608
12 10 0.0046555291388763447
12 11 -0.0046555291388763412
12 12 0.018367715573842786
13 13 0.02263613024266925
14 13 0.0094792684446491776
14 14 0.022636130242669243
15 13 -0.0047133126662059878
15 14 -0.0047133126662059835
15 15 0.018445941544104554
16 16 0.022691118289320817
17 16 -0.0095720204284864222
17 17 0.022665385695539841
18 16 0.0046932828471240567
18 17 -0.0046932828471240532
18 18 0.018417436080584337
19 19 0.022775774397017019
20 19 0.0097447037373513106
20 20 0.022747982619165615
21 19 0.0046555291388763499
21 20 0.0046555291388763465
21 21 0.018367715573842792
22 22 0.022751046701278872
23 22 -0.0096422172726176487
23 23 0.022674834432375092
24 22 -0.0046780086761755687
24 23 0.0046780086761755652
24 24 0.018397369315838959
25 1 0.0018451968379282343
25 2 0.0022810288050941143
25 3 0.0015809226023128055
25 25 0.048897392003504202
26 1 0.00067846470253001164
26 2 -0.0061183804167062629
26 3 0.00080902707117913608
26 25 -0.0020441005796458253
26 26 0.062987082767900646
27 1 0.0016856142771914189
27 2 0.0018877298327513172
27 3 0.00028641723012856152
27 25 0.0065726868594646205
27 26 -0.00065291023450871543
27 27 0.041369864356665634
28 25 0.0015538845547414229
28 26 0.0013582914738180659
28 27 0.0019652483347326563
28 28 0.044227122632615919
29 25 -0.00024427262874603556
29 26 -0.0072746709526810577
29 27 -0.00019713302117701248
29 28 -0.0013263935342293165
29 29 0.059359307045306557
30 25 0.0019643474200799873
30 26 0.0010727514401667345
30 27 0.00063191884514685178
30 28 0.0064944323611231041
30 29 0.00095918381603378802
30 30 0.041348431220786019
31 10 0.0019548023023533106
31 11 -0.0022269006194438456
31 12 0.0015890418301603452
31 28 0.0014735393761017173
31 29 0.00068042414207478033
31 30 0.0020705915175629605
31 31 0.046419383369747116
32 10 -0.00062433651687974253
32 11 -0.0060030116707451764
32 12 -0.00079879454434648577
32 28 -0.00092213996048932164
32 29 -0.0074899850434342928
32 30 -0.0014079064293327456
32 31 0.0031681918852922018
32 32 0.032778345142637659
33 10 0.0017045591421690125
33 11 -0.0018638539368084643
33 12 0.00032077847199782355
33 28 0.0019075868142147516
33 29 -0.00010908779021703401
33 30 0.00053904050412601108
33 31 0.018811100853821549
33 32 0.0026035785178334927
33 33 0.034522423022365439
34 4 -0.0062355521695839546
34 5 -0.0006651658805466342
34 6 -0.00082092872823583455
34 34 0.067572161794286129
35 4 -0.0022677299831107369
35 5 0.0017772683432365547
35 6 0.0015829174256103166
35 34 0.0030353736713277153
35 35 0.050181668628670802
36 4 -0.0019155003658836217
36 5 0.0016902688648856032
36 6 0.00026346692894978381
36 34 0.0016265048856795024
36 35 0.0054325253956500697
36 36 0.043967877315129439
37 34 -0.0077666044086053309
37 35 0.00034248474707436797
37 36 -0.00011214922053081944
37 37 0.052159120001883434
38 34 -0.0012600793554897339
38 35 0.0012824189042357896
38 36 0.0019019101075957296
38 37 0.0016020501729062428
38 38 0.041130981431584654
39 34 -0.0014474177936492302
39 35 0.001997326931943853
39 36 0.00048774701779655255
39 37 0.00058887952099469806
39 38 0.0093702381868396613
39 39 0.038046183483223334
40 37 -0.0094127862482216197
40 38 0.0009000381179182247
40 39 0.00057440075803475506
40 40 0.04955829618811123
41 37 -0.00070252598464587814
41 38 0.00049280043735162545
41 39 0.0019743756070461555
41 40 -0.00012441565136029221
41 41 0.040717655689592888
42 37 -0.00099886166078953201
42 38 0.002037363460209044
42 39 0.00041437796331904574
42 40 0.00022176545704663021
42 41 0.010587574440493439
42 42 0.03801322444646927
43 40 -0.0095829577793420887
43 41 0.00082185369401355224
43 42 0.00079896481539572912
43 43 0.043839515071030302
44 40 -0.00078071040855055168
44 41 0.00041565242662191664
44 42 0.0020011479639319785
44 43 0.00047210825661175848
44 44 0.038630961688646492
45 40 -0.00079896481539576457
45 41 0.0020052622924782823
45 42 0.00040410241310474463
45 43 0.00039046852632440652
45 44 0.013679637258571586
45 45 0.03790507147964782
46 43 -0.016179440629026993
46 44 0.003210268923079196
46 45 0.0033053946063043176
46 46 0.053584887878129463
47 43 0.001607704820515094
47 44 -0.0036751171294232329
47 45 0.0010489868696673583
47 46 -0.0038780556207031764
47 47 0.04447509727171086
48 43 0.0017070966014023933
48 44 0.0010350410364351741
48 45 -0.0036094401559432919
48 46 -0.0048180196908001677
48 47 0.0054265614798657017
48 48 0.044451395850227976
49 46 -0.020591633824128996
49 47 0.0042885053851798288
49 48 0.0042873663179495399
49 49 0.056038305893679197
50 46 0.0026859412826157262
50 47 -0.0054866488016697065
50 48 0.0002382142730911416
50 49 -0.0077454491513690178
50 50 0.051656560088118302
51 46 0.0027210974855369939
51 47 0.00022785019070932792
51 48 -0.0055429402066009374
51 49 -0.0066531721610182037
51 50 0.0065944121480637184
51 51 0.051566445769780235
52 49 -0.014847434602530976
52 50 0.002247179606842141
52 51 0.0021876616992006631
52 52 0.056808050004826506
53 49 0.00064461550427803802
53 50 -0.0021616582761646037
53 51 0.001116463821071669
53 52 0.0046299489665673106
53 53 0.062681969774354196
54 49 0.00061144416516965795
54 50 0.0011196504585557273
54 51 -0.0022139299338261031
54 52 0.0033878595224582455
54 53 0.00057072141408974627
54 54 0.051696883491492422
55 52 -0.017036601258600074
55 53 -0.0043204193867568746
55 54 -0.0043347556553932484
55 55 0.045667828694843281
56 52 -0.0059229834893209776
56 53 -0.010290224916933498
56 54 0.0014666115028113347
56 55 0.0022385488638852515
56 56 0.046843048817956839
57 52 -0.0059296269922347565
57 53 0.0014721384945558277
57 54 -0.010438229282886072
57 55 0.0022812286876260474
57 56 0.016714069941429863
57 57 0.046805131586862787
58 55 -0.014172408211559776
58 56 0.0036816088378359485
58 57 0.003648610090583173
58 58 0.045791541679981389
59 55 0.0020790447352718455
59 56 -0.0039103155102183972
59 57 0.00144607410285432
59 58 -0.0029778831433168204
59 59 0.04217134629417435
60 55 0.0020546336886919773
60 56 0.0014481656915977725
60 57 -0.0039447328443119045
60 58 -0.0027889220035283084
60 59 0.010953467761324939
60 60 0.041396046939504938
61 58 -0.015498424347077631
61 59 0.0020151314380686901
61 60 0.002006302165443642
61 61 0.046815523233251222
62 58 0.00041256733550458806
62 59 -0.0021500137498745124
62 60 0.0010293662943231601
62 61 -0.0031310624588770366
62 62 0.041218792497682941
63 58 0.00040648112063614375
63 59 0.0010300917855217227
63 60 -0.002230016141182001
63 61 -0.0031765400516905779
63 62 0.010990863653149632
63 63 0.040021808936767336
64 61 -0.015405130913697881
64 62 0.0025720527553580114
64 63 0.0025836872541569172
64 64 0.04863916626310931
65 61 0.00096948865279390878
65 62 -0.002641382048556626
65 63 0.0010983538467816845
65 64 -0.0031184669795134715
65 65 0.041862170479242511
66 61 0.00098115296495985584
66 62 0.0010967457810307549
66 63 -0.0026486199977041568
66 64 -0.0032929502951458025
66 65 0.0090899236458327828
66 66 0.040634558540092507
67 64 -0.017487808897353907
67 65 0.0030636918797651001
67 66 0.0031071029348802145
67 67 0.049765234986028105
68 64 0.0014611277772009974
68 65 -0.0035688682603032549
68 66 0.00078503140705087114
68 67 -0.004393823979349812
68 68 0.044619724874838645
69 64 0.0014914301550247556
69 65 0.00078277071858454084
69 66 -0.0035798027868007409
69 67 -0.004846405405242199
69 68 0.0099848307119399186
69 69 0.04414779284752187
70 67 -0.014745240745138598
70 68 0.0020031582316131836
70 69 0.0020109838512519895
70 70 0.04574491644046446
71 67 0.00040059412904908077
71 68 -0.0020182972709937882
71 69 0.0012036899788054221
71 70 -0.0055619609975447772
71 71 0.044054362166284042
72 67 0.00038876263139522621
72 68 0.0012060571317693692
72 69 -0.0019844672487027964
72 70 -0.0058146928504464058
72 71 0.01579944452493719
72 72 0.044882150847722076
73 70 -0.013306850857062852
73 71 0.0037187726281323378
73 72 0.0037680265927553273
73 73 0.045793305955848317
74 70 0.0021162085255682357
74 71 -0.0037774085236151281
74 72 0.0016683495484726394
74 73 -0.0051127374323097731
74 74 0.04304822515900774
75 70 0.0021559310695372499
75 71 0.0016637482577381861
75 72 -0.0041221426036196799
75 73 -0.0046154020020449434
75 74 0.011873333866012702
75 75 0.042089102900946446
76 73 -0.017044238608197655
76 74 0.0044055799914452963
76 75 0.0043349437470977265
76 76 0.048692257270906786
77 73 0.0028030158888811929
77 74 -0.0059524012378150033
77 75 0.00099174646366595584
77 76 -0.0061096511177871531
77 77 0.048238821995625472
78 73 0.002755356700421944
78 74 0.0009927546320404961
78 75 -0.005434977722835928
78 76 -0.0061209666217501993
78 77 0.0089815144828993936
78 78 0.044068483900457742
79 76 -0.0095622239553146016
79 77 0.00082909840173909057
79 78 0.00079748338161497192
79 79 0.044379050068662759
80 76 -0.00077346570082501237
80 77 0.00042525987503512795
80 78 0.0020004234931594264
80 79 0.00013089783750433993
80 80 0.03826610149956209
81 76 -0.00079748338161497018
81 77 0.002005986763250834
81 78 0.00040631831487252998
81 79 -2.471820061197528e-05
81 80 0.012632903397380744
81 81 0.037318467196223878
82 79 -0.0097191966187703521
82 80 0.00077600834336881874
82 81 0.00080869979754967156
82 82 0.044345047109095745
83 79 -0.00082655575919528322
83 80 0.00035255323016444368
83 81 0.0020057324989964493
83 82 -1.5704758983025352e-05
83 83 0.038161814325600674
84 79 -0.00080869979754965291
84 80 0.0020006777574138011
84 81 0.00038955085060042929
84 82 -0.00019971012499561788
84 83 0.01259106247685615
84 84 0.037254527798000009
85 82 -0.009409708306777181
85 83 0.00068685805963697379
85 84 0.00099856792609206708
85 85 0.070459684837465716
86 82 -0.00091570604292712915
86 83 0.00049374026984994588
86 84 0.0020393529680506205
86 85 -0.0025169349524948432
86 86 0.046458151732468686
87 82 -0.00057423184432078074
87 83 0.0019732315298859526
87 84 0.00041456603600602797
87 85 -0.001340881328289076
87 86 0.0049770822533689247
87 87 0.047773898008112291
88 1 -0.0062391279570941753
88 2 0.00058582150016859322
88 3 0.00082292355153334193
88 85 -0.0077666044086053335
88 86 0.0012600793554897172
88 87 0.0014474177936492302
88 88 0.062222094092038556
89 1 0.0021883856027326964
89 2 0.0018221042567541177
89 3 0.0015948190826670229
89 85 -0.00034248474707438559
89 86 0.0012824189042357943
89 87 0.0019973269319438574
89 88 -0.0019862918799727338
89 89 0.048321338315392384
90 1 0.0019201549535778056
90 2 0.0017180393980179179
90 3 0.00027568349254482912
90 85 0.00011214922053081968
90 86 0.00190191010759573
90 87 0.00048774701779655217
90 88 -0.0011449747927195243
90 89 0.0068265042598020433
90 90 0.041213211994636387
91 10 -0.0061435512223762109
91 11 -0.00051760465461758807
91 12 0.00081480432368580562
91 91 0.062692794935937379
92 10 -0.0021201687571816906
92 11 0.0019231950276502271
92 12 -0.0016050516094996698
92 91 0.0017842386602133966
92 92 0.048348178480083499
93 10 0.0019012100886002155
93 11 -0.0017419152939607669
93 12 0.00030698300680309887
93 91 -0.0010414669319230036
93 92 -0.0065722353412456455
93 93 0.041765823096963042
94 91 -0.0077666044086053074
94 92 0.00034248474707438168
94 93 0.00011214922053082984
94 94 0.046241461152787815
95 91 -0.0012600793554897204
95 92 0.0012824189042358063
95 93 -0.0019019101075957304
95 94 0.0012954807007208903
95 95 0.039432514106643078
96 91 0.0014474177936492389
96 92 -0.0019973269319438591
96 93 0.00048774701779655895
96 94 -0.00043651400189626531
96 95 -0.011257733470223602
96 96 0.03613686148303763
97 94 -0.0094097083067772053
97 95 0.00091570604292712482
97 96 -0.00057423184432077662
97 97 0.050604125416639466
98 94 -0.00068685805963697791
98 95 0.00049374026984993363
98 96 -0.0019732315298859509
98 97 -0.00049183674003241994
98 98 0.040341232456961126
99 94 0.00099856792609207272
99 95 -0.0020393529680506188
99 96 0.0004145660360060187
99 97 -0.00019229503229440414
99 98 -0.01015996647001222
99 99 0.03836743986159178
100 97 -0.0095098038856057891
100 98 0.0009441404959798505
100 99 -0.00079367231343746114
100 100 0.065717904710819633
101 97 -0.00065842360658425287
101 98 0.00044675972147178728
101 99 -0.0019889192837353503
101 100 -0.00057083510365262609
101 101 0.043777993966870293
102 97 0.00079367231343745962
102 98 -0.0020174909726749101
102 99 0.00041110003236246212
102 100 -0.00010578122600040265
102 101 -0.0055891450919637849
102 102 0.047294706276439474
103 100 -0.0093303934786450847
103 101 0.00082020751470632215
103 102 -0.00078096199634409755
103 103 0.043149423951378531
104 100 -0.00078235658785778036
104 101 0.00053450766936594802
104 102 -0.0020013125818627033
104 103 -0.00015758303053312189
104 104 0.038451325193237365
105 100 0.0007809619963440802
105 101 -0.0020050976745475558
105 102 0.00043163147565602057
105 103 -1.7282060682048272e-05
105 104 -0.012740144331136183
105 105 0.036483616078174054
106 103 -0.0092235932943663442
106 104 0.00082892572813692781
106 105 -0.00077336611035127287
106 106 0.066441219406588772
107 103 -0.00077363837442717394
107 104 0.00058548315964692429
107 105 -0.0020004407605196377
107 106 0.00017338576384236487
107 107 0.048515306950578929
108 103 0.00077336611035127309
108 104 -0.0020059694958906131
108 105 0.00044348308502457163
108 106 0.00013111650656534118
108 107 -0.0055718282727427251
108 108 0.043365575929714982
109 106 -0.0095714750524281949
109 107 0.00088867738514542612
109 108 -0.00079811920655506799
109 109 0.043909809892804463
110 106 -0.00071388671741867682
110 107 0.00041990359509155834
110 108 -0.0019944655948187905
110 109 -0.00071957370238687418
110 110 0.037498848267887977
111 106 0.00079811920655505975
111 107 -0.0020119446615914651
111 108 0.00040501502951010849
111 109 -0.00021832865742519702
111 110 -0.012480338735372553
111 111 0.037650308741238814
112 109 -0.009080575468484408
112 110 0.0010092145164647397
112 111 -0.00076305628954819599
112 112 0.04277986670581916
113 109 -0.00059334958609936269
113 110 0.00064787816610287837
113 111 -0.0019824118816868606
113 112 -0.0002525419932212958
113 113 0.03854366051199537
114 109 0.00076305628954819566
114 110 -0.0020239983747233985
114 111 0.00045762815086803867
114 112 2.1076935102912284e-05
114 113 -0.012729098008162215
114 114 0.036327233781497381
115 112 -0.0092024577771769398
115 113 0.00085155598676259323
115 114 -0.00077185804084423993
115 115 0.058148524726091652
116 112 -0.00075100811580150961
116 113 0.0005953645157610912
116 114 -0.0019981777346570729
116 115 0.0024271244682898285
116 116 0.049468950274167173
117 112 0.00077185804084424763
117 113 -0.0020082325217531823
117 114 0.00044576773337611154
117 115 -0.0026325409359164702
117 116 -0.0050003449860458755
117 117 0.043034425718497936
118 115 -0.014538385018848413
118 116 -0.00043215047303094608
118 117 0.00044354787484337339
118 118 0.045046685252180502
119 115 -0.0020347145755950482
119 116 -0.001965221440420252
119 117 -0.0011897639204372307
119 118 0.0025055076051370374
119 119 0.039901889240477877
120 115 0.0020328599464903233
120 116 -0.0011919106972074385
120 117 -0.0019906352063240058
120 118 -0.0024787161905736599
120 119 -0.011919858266453906
120 120 0.039724287332956666
121 118 -0.014578787674980024
121 119 -0.0004433956438332999
121 120 0.00044897682345715394
121 121 0.045150569930972717
122 118 -0.0020459597463974026
122 119 -0.0019881817062667117
122 120 -0.0011954404935897158
122 121 0.0025320455607170888
122 122 0.03990134442601654
123 118 0.0020455462748434263
123 119 -0.0011964761287737431
123 120 -0.0019999724076472675
123 121 -0.0025038815685877189
123 122 -0.011954356262036886
123 123 0.039830380718511263
124 121 -0.014632268310469317
124 122 -0.00045276590312267858
124 123 0.00044521629081698487
124 124 0.049792369193899844
125 121 -0.0020553300056867815
125 122 -0.0020075312615818945
125 123 -0.0011928448005072967
125 124 0.0046831287035786181
125 125 0.045322664664276924
126 121 0.0020461409460838472
126 122 -0.0011918345861574426
126 123 -0.0020087335039399505
126 124 -0.0050828219018687433
126 125 -0.0098320399823731454
126 126 0.044386682342297284
127 124 -0.017506646358099235
127 125 -0.0017027454215956001
127 126 0.0016516092487737525
127 127 0.046269915463687937
128 124 -0.003305309524159702
128 125 -0.0037967262512282008
128 126 -0.00075981218309187988
128 127 -0.00098896832976260417
128 128 0.038691999681497398
129 124 0.0032522304808107125
129 125 -0.00075373747461092379
129 126 -0.0037823507611839673
129 127 0.00094071377403858565
129 128 -0.012100683493982297
129 129 0.037828271803757099
130 127 -0.0094832685238763707
130 128 0.00077574166928298747
130 129 -0.00079185085740914919
130 130 0.043539456533584903
131 127 -0.00082682243328111547
131 128 0.00046222160632194308
131 129 -0.002005759166405031
131 130 -0.00014904220069285844
131 131 0.038366232229555819
132 127 0.00079185085740916589
132 128 -0.0020006510900052198
132 129 0.00041486719373810474
132 130 -2.3193372829366649e-05
132 131 -0.012730803771147912
132 132 0.036719649473429372
133 130 -0.0093351653653391976
133 131 0.00084168194687966392
133 132 -0.00078129693672852917
133 133 0.045072963611743865
134 130 -0.00076088215568443859
134 131 0.00053204103227527135
134 132 -0.0019991651386453684
134 133 -0.00018149687820286173
134 134 0.038471359032925756
135 130 0.00078129693672852885
135 131 -0.0020072451177648907
135 132 0.00043104634376741349
135 133 0.0002558588713705936
135 134 -0.013049191459729857
135 135 0.038666597137084723
136 133 -0.017188770251424568
136 134 0.0040888482530656483
136 135 -0.0039680541636768207
136 136 0.049202315808960721
137 133 0.0024862841505015453
137 134 -0.0048464880059513379
137 135 -0.00088948425762608297
137 136 -0.0055944414608927592
137 137 0.045371105356472999
138 133 -0.0023732989558370929
138 134 -0.00090265172280363756
138 135 -0.0049820194226949726
138 136 0.0051366759460929438
138 137 -0.0103751088848648
138 138 0.046443503707041298
139 136 -0.014581527412655029
139 137 0.0021399716866959562
139 138 -0.0021872789914868188
139 139 0.059885737522415314
140 136 0.00053740758413185416
140 137 -0.0020828225587006502
140 138 -0.0012215333531355194
140 139 -0.0013580814270452179
140 140 0.049012185476115556
141 136 -0.00058573048363544866
141 137 -0.001214551938363913
141 138 -0.0020959552105756325
141 139 0.003441101720364314
141 140 -0.0047332101885042277
141 141 0.044557387012183772
142 139 -0.0097168623281812874
142 140 0.00062410958637938816
142 141 -0.0010263203663174168
142 142 0.060902964433590778
143 139 -0.00097845451618471446
143 140 0.00034773241926377838
143 141 -0.0020473207480547883
143 142 -0.0011740376088246601
143 143 0.042354375450213734
144 139 0.0005901910339949091
144 140 -0.001968649615238603
144 141 0.00038045061250936989
144 142 0.0014548274865224477
144 143 -0.0070948197397740064
144 144 0.043645550186859623
145 7 -0.0063212466463484791
145 8 0.00046652358538293683
145 9 -0.0008333435463212034
145 142 -0.0081337229163516277
145 143 0.00080128205128204215
145 144 -0.0015044277018079952
145 145 0.033539382882818165
146 7 0.002069087687947039
146 8 0.0018342636945150772
146 9 -0.0016127137698848709
146 142 -0.00080128205128206069
146 143 0.0011186852437385293
146 144 -0.0020967932707999571
146 145 -0.0030802020537113893
146 146 0.044847648440445295
147 7 -0.0019444682747494827
147 8 -0.0017597936681928972
147 9 0.00027605642869443027
147 142 -0.0001165664777944732
147 143 -0.001909616985610295
147 144 0.00044574529305105054
147 145 0.0027982948088177478
147 146 -0.018728338917495008
147 147 0.035312573369484269
148 7 0.0019095019668080723
148 8 0.0023504954370131932
148 9 -0.001570502607524943
148 148 0.047980416072091747
149 7 0.00074793133444909067
149 8 -0.0059530154491654139
149 9 -0.00079113238396128892
149 148 -0.0094073238833107982
149 149 0.04821285823379156
150 7 -0.0016613009560197409
150 8 -0.0018459755625763389
150 9 0.00031011592386144543
150 148 -0.013250303196372864
150 149 0.005497310119879438
150 150 0.038455603802973221
151 148 0.00166098519334567
151 149 0.0015229998112051123
151 150 -0.0019703620995121384
151 151 0.041590709524441785
152 148 -7.9564291358989872e-05
152 149 -0.0070262454662017061
152 150 0.00019156979092230957
152 151 0.0020507608008645843
152 152 0.047235390761994976
153 148 -0.00193651951738206
153 149 -0.0010424776522844287
153 150 0.00065721489693195193
153 151 -0.01200419754924281
153 152 -0.0033305501886480193
153 153 0.037488132246300827
154 4 0.0017772683432365404
154 5 -0.0022677299831107326
154 6 -0.0015829174256103121
154 151 0.0015094969145209088
154 152 0.00071462447481762984
154 153 -0.0020780060813679209
154 154 0.046235424912046179
155 4 -0.00066516588054663041
155 5 -0.0062355521695839772
155 6 0.00082092872823584311
155 151 -0.00088793962774647245
155 152 -0.0074298688866570161
155 153 0.001399036031938173
155 154 0.0028962639652797555
155 155 0.03279400444461153
156 4 -0.0016902688648856019
156 5 0.0019155003658836321
156 6 0.0002634669289497714
156 151 -0.0019081613114711423
156 152 0.0001084004916651131
156 153 0.00054857045303165555
156 154 -0.018849438053736844
156 155 -0.0025624650040631542
156 156 0.034652591345931544
157 16 0.0018451968379282343
157 17 -0.0022810288050941143
157 18 0.0015809226023128055
157 157 0.049242959913019343
158 16 -0.00067846470253001164
158 17 -0.0061183804167062629
158 18 -0.00080902707117913651
158 157 0.0034487664891595122
158 158 0.063116074640479053
159 16 0.0016856142771914187
159 17 -0.0018877298327513177
159 18 0.00028641723012856152
159 157 0.0058338659686019492
159 158 0.002141992749753522
159 159 0.042205643305001567
160 157 0.0015313128371898142
160 158 -0.0013582914738180666
160 159 0.0019002603402397174
160 160 0.038669889920039717
161 157 0.00024427262874603567
161 158 -0.0072972426702326704
161 159 -0.00010665760834265046
161 160 0.000790531218785162
161 161 0.041575419997687817
162 157 0.0019760347409221771
162 158 -0.0013765420696863972
162 159 0.00055291783371621888
162 160 0.011568489405841393
162 161 0.00034064939895439615
162 162 0.034232636125307234
163 19 0.0019548023023533119
163 20 0.0022269006194438456
163 21 0.0015890418301603454
163 160 0.0014966253877549921
163 161 -0.00068042414207478098
163 162 0.0020380363545141043
163 163 0.04537069361553947
164 19 0.00062433651687974264
164 20 -0.0060030116707451764
164 21 0.00079879454434648566
164 160 0.00092213996048932185
164 161 -0.0074668990317810161
164 162 0.0010971939637346418
164 163 -0.0034914948110185522
164 164 0.057161712163928853
165 19 0.0017045591421690127
165 20 0.0018638539368084647
165 21 0.0003207784719978242
165 160 0.0019517069665010243
165 161 -0.00020162467538106758
165 162 0.00061984154491244751
165 163 0.0076588063267401564
165 164 -0.0018437578235449329
165 165 0.040887304353348392
166 13 -0.0062355521695839668
166 14 0.00066516588054663952
166 15 -0.00082092872823583867
166 166 0.063757855171988273
167 13 0.0022677299831107426
167 14 0.0017772683432365425
167 15 -0.0015829174256103123
167 166 -0.0021362221237806976
167 167 0.049125452812309914
168 13 -0.0019155003658836269
168 14 -0.0016902688648855991
168 15 0.00026346692894977427
168 166 0.0010260724020223887
168 167 -0.0066424761575793433
168 168 0.041615259708382368
169 166 -0.0077666044086053222
169 167 -0.00034248474707436341
169 168 -0.00011214922053082324
169 169 0.072519894799853463
170 166 0.0012600793554897389
170 167 0.0012824189042357965
170 168 -0.0019019101075957315
170 169 -0.0025875892648471628
170 170 0.047477465249568376
171 166 -0.0014474177936492337
171 167 -0.0019973269319438552
171 168 0.00048774701779655776
171 169 0.0013561938393472999
171 170 -0.0045033281275459799
171 171 0.048327406780991899
172 169 -0.0094127862482216041
172 170 -0.00090003811791822925
172 171 0.00057440075803476026
172 172 0.049558296188111223
173 169 0.00070252598464587293
173 170 0.0004928004373516325
173 171 -0.0019743756070461568
173 172 0.00012441565136030695
173 173 0.040717655689592888
174 169 -0.00099886166078952659
174 170 -0.0020373634602090453
174 171 0.00041437796331905328
174 172 0.00022176545704661633
174 173 -0.010587574440493439
174 174 0.038013224446469276
175 172 -0.009582957779342087
175 173 -0.00082185369401356124
175 174 0.00079896481539573757
175 175 0.049665703767170929
176 172 0.00078071040855054192
176 173 0.00041565242662191452
176 174 -0.0020011479639319776
176 175 -6.7507788716246505e-05
176 176 0.040860870459735937
177 172 -0.00079896481539575535
177 173 -0.0020052622924782815
177 174 0.00040410241310474376
177 175 -1.6195076253791269e-05
177 176 -0.010551964722215297
177 177 0.038120288800548185
178 175 -0.0095857596050326153
178 176 -0.00073155288512113861
178 177 0.00079914900245097158
178 178 0.049418117934092079
179 175 0.00087101121744296401
179 176 0.00041367398655171048
179 177 -0.0020101780448212223
179 178 3.1733051181901236e-05
179 179 0.041011384596580769
180 175 -0.00079914900245095326
180 176 -0.0019962322115890377
180 177 0.00040360292560440701
180 178 4.0510483935460454e-05
180 179 -0.010543939208534579
180 180 0.037825686839361092
181 178 -0.0093610343471018514
181 179 -0.0007494616393729838
181 180 0.00078313441620627301
181 181 0.049443783128231819
182 178 0.0008531024631911186
182 179 0.00051959247391017015
182 180 -0.0020083871693960319
182 181 -0.0042738107297899527
182 182 0.045436685553849603
183 178 -0.0007831344162062729
183 179 -0.0019980230870142186
183 180 0.00042814585547656752
183 181 0.0035088616559179157
183 182 -0.0078390157645301193
183 183 0.03985158041474518
184 181 -0.014517497887003648
184 182 0.0014947955302127783
184 183 -0.0014916095366236432
184 184 0.042666259927644543
185 181 0.0030973596327768804
185 182 -0.0031344675433584378
185 183 -0.0012753593120844681
185 184 -0.0036795118432504112
185 185 0.041908547755831534
186 181 -0.0030678270706546479
186 182 -0.0012785459495685259
186 183 -0.0030336820373986504
186 184 0.0035505283146949115
186 185 -0.013977725899096013
186 186 0.041176554380311169
187 184 -0.012237246389625825
187 185 0.0021943088225972076
187 186 -0.0022134501274104009
187 187 0.044841769719477377
188 184 0.0037968729251613102
188 185 -0.0038295469972075072
188 186 -0.0018526495828095292
188 187 0.0020149073740187208
188 188 0.053588462816895999
189 184 -0.0038083214642519077
189 185 -0.0018581765745540218
189 186 -0.0039148330903904221
189 187 -0.0019589453623500884
189 188 -0.019086068413468646
189 189 0.053566101807380313
190 187 -0.015173901989829314
190 188 -0.0058093926157757681
190 189 0.0057670349635072435
190 190 0.061240181500697773
191 187 -0.004206828513211666
191 188 -0.010420393004138887
191 189 -0.00183679507073566
191 190 0.0072645612535625929
191 191 0.055069429753462934
192 187 0.0041730585616160483
192 188 -0.001838886659479112
192 189 -0.010552002820322946
192 190 -0.0072533502394472628
192 191 -0.0095897714701686683
192 192 0.05229623449915384
193 190 -0.0095961815174564809
193 191 -0.00080490950727486776
193 192 0.00079991052240375364
193 193 0.061234248143857563
194 190 0.00079765459528923454
194 191 0.00040956189106166729
194 192 -0.0020028423826058462
194 193 -0.0036459180402264504
194 194 0.054310340185305631
195 190 -0.00079991052240374443
195 191 -0.0020035678738044085
195 192 0.00040270001259038509
195 193 0.0034284434828955267
195 194 -0.0038069189830991132
195 195 0.044741624486825483
196 193 -0.019381641824061383
196 194 0.00041914328016606479
196 195 -0.00040421832303246322
196 196 0.069454745543687996
197 193 0.0020217073827301681
197 194 -0.0023112874340059037
197 195 -0.00028940456176614532
197 196 0.00039424909069120384
197 197 0.045733753431443723
198 193 -0.0020067526122295241
198 194 -0.00028779649601521392
198 195 -0.0031424201127490743
198 196 -0.0039201867817224376
198 197 -0.0032147253577766875
198 198 0.047784666451437224
199 196 -0.0097070985045575649
199 197 -0.00078997860895040669
199 198 0.00080783638992773781
199 199 0.042878028246530121
200 196 0.00081258549361369517
200 197 0.00035820180597705722
200 198 -0.0020043354724382902
200 199 -0.0039836552432682866
200 200 0.040242953486983216
201 196 -0.00080783638992772057
201 197 -0.0020020747839719598
201 198 0.00039085636953905596
201 199 0.0039958089501023761
201 200 -0.014660314692505293
201 201 0.040529340356929566
202 199 -0.01477450167329321
202 200 0.00040353571999088734
202 201 -0.00042525167906255789
202 202 0.042201355678648314
203 199 0.0020060998225549902
203 200 -0.0020418889993751299
203 201 -0.0012037385142539278
203 202 0.0014187055489264752
203 203 0.037991269066068013
204 199 -0.0020474728989193208
204 200 -0.0012061056672178752
204 201 -0.0020144619923923228
204 202 -0.0013840694487140467
204 203 -0.014732494757040061
204 204 0.038285151687139155
205 202 -0.0096821026492586813
205 203 -0.00077827559760976662
205 204 0.00080604776160902937
205 205 0.038427123101413621
206 202 0.000824288504954336
206 203 0.00036967059597879708
206 204 -0.0020055057735723528
206 205 0.00014525777436456646
206 206 0.042664750542642821
207 202 -0.00080604776160904802
207 203 -0.0020009044828378977
207 204 0.00039349437085430683
207 205 -8.2932523329680682e-05
207 206 -0.020099639327360849
207 207 0.042467758089923716
208 205 -0.0094543793961784466
208 206 -0.0008063228931547607
208 207 0.00078979352333789137
208 208 0.061943301093910275
209 205 0.00079624120940934235
209 206 0.00047589685523581225
209 207 -0.0020027010440178588
209 208 0.00048237132179578494
209 209 0.044119756892765691
210 205 -0.00078979352333789137
210 206 -0.0020037092123924008
210 207 0.00041803964554519487
210 208 -0.00057347260133270021
210 209 -0.0067819309924225194
210 210 0.042722926165384791
211 208 -0.0095622239553146051
211 209 -0.00082909840173908949
211 210 0.00079748338161497105
211 211 0.052224835416101845
212 208 0.00077346570082501313
212 209 0.00042525987503512632
212 210 -0.0020004234931594264
212 211 0.0011242191629887207
212 212 0.042380650902712397
213 208 -0.00079748338161497072
213 209 -0.0020059867632508336
213 210 0.00040631831487253014
213 211 -0.001307321144572565
213 212 -0.010203938718427761
213 213 0.038999991455863789
214 211 -0.0097191966187703486
214 212 -0.00077600834336880888
214 213 0.00080869979754967047
214 214 0.044345047109095724
215 211 0.00082655575919529255
215 212 0.00035255323016444422
215 213 -0.0020057324989964502
215 214 1.5704758983010268e-05
215 215 0.038161814325600674
216 211 -0.00080869979754965324
216 212 -0.0020006777574138003
216 213 0.00038955085060043016
216 214 -0.00019971012499561474
216 215 -0.012591062476856152
216 216 0.037254527798000002
217 214 -0.009409708306777181
217 215 -0.00068685805963697379
217 216 0.00099856792609206752
217 217 0.05482856167099228
218 214 0.00091570604292712915
218 215 0.00049374026984994588
218 216 -0.0020393529680506209
218 217 0.0015851237850290582
218 218 0.042443233913178877
219 214 -0.00057423184432078042
219 215 -0.0019732315298859526
219 216 0.00041456603600602856
219 217 -0.00058038285922594425
219 218 -0.0086542405116508403
219 219 0.038740848562821471
220 16 -0.0062391279570941753
220 17 -0.00058582150016859322
220 18 0.00082292355153334193
220 217 -0.0077666044086053387
220 218 -0.0012600793554897178
220 219 0.0014474177936492304
220 220 0.065720215545743241
221 16 -0.0021883856027326964
221 17 0.0018221042567541177
221 18 -0.0015948190826670229
221 217 0.00034248474707438597
221 218 0.001282418904235793
221 219 -0.0019973269319438569
221 220 0.0028542509517437138
221 221 0.049199810537791322
222 16 0.001920154953577806
222 17 -0.0017180393980179181
222 18 0.00027568349254482956
222 217 0.00011214922053081944
222 218 -0.0019019101075957298
222 219 0.00048774701779655006
222 220 -0.0017319311263507501
222 221 -0.0056760690186331581
222 222 0.043498512689296213
223 19 -0.0061435512223761996
223 20 0.00051760465461758167
223 21 0.00081480432368580117
223 223 0.057319453100449703
224 19 0.0021201687571816849
224 20 0.0019231950276502392
224 21 0.0016050516094996744
224 223 -0.0034335557265977373
224 224 0.045220393516890077
225 19 0.0019012100886002113
225 20 0.0017419152939607719
225 21 0.0003069830068031089
225 223 -0.0020431555673610909
225 224 0.007351047627504749
225 225 0.04187721133531272
226 223 -0.0077666044086053205
226 224 -0.00034248474707438586
226 225 0.00011214922053081921
226 226 0.068959997597496603
227 223 0.001260079355489717
227 224 0.0012824189042358002
227 225 0.0019019101075957298
227 226 -0.0022238931496512742
227 227 0.046884728785415344
228 223 0.001447417793649228
228 224 0.0019973269319438569
228 225 0.00048774701779655407
228 226 -0.0010810680123269551
228 227 0.0052367781807269717
228 228 0.045358959212980582
229 226 -0.0094097083067772209
229 227 -0.00091570604292712113
229 228 -0.00057423184432077239
229 229 0.048064143277408898
230 226 0.00068685805963698203
230 227 0.00049374026984992593
230 228 0.0019732315298859487
230 229 0.00062864388494123392
230 230 0.038218802000550785
231 226 0.00099856792609207706
231 227 0.0020393529680506161
231 228 0.00041456603600601122
231 229 -1.7355333122025772e-05
231 230 0.011003571795119373
231 231 0.038662937615895718
232 229 -0.0095098038856057891
232 230 -0.00094414049597984085
232 231 -0.0007936723134374426
232 232 0.0438617437050976
233 229 0.00065842360658426198
233 230 0.00044675972147178739
233 231 0.001988919283735349
233 232 0.00032157162363467265
233 233 0.037328540159151012
234 229 0.00079367231343747784
234 230 0.0020174909726749105
234 231 0.00041110003236246272
234 232 -8.870263697341018e-05
234 233 0.012565563726685141
234 234 0.037983507974723552
235 232 -0.0093303934786450864
235 233 -0.00082020751470631326
235 234 -0.00078096199634408888
235 235 0.041128651406537195
236 232 0.00078235658785778958
236 233 0.00053450766936594823
236 234 0.0020013125818627037
236 235 -0.0011109448159271108
236 236 0.038225854333954909
237 232 0.00078096199634408866
237 233 0.0020050976745475562
237 234 0.00043163147565602068
237 235 -0.0012241779010219475
237 236 0.014645851799268417
237 237 0.037286724411702485
238 235 -0.01418526690852835
238 236 -0.0022027122095587921
238 237 -0.0020884010897271391
238 238 0.048952566971870601
239 235 -0.00060014810699468969
239 236 -0.0019286231090462288
239 237 0.0011781065203724933
239 238 0.0035525467452801975
239 239 0.043076108369322519
240 235 -0.0005416688690245932
240 236 0.0011836352557434687
240 237 -0.0020086841444843877
240 238 0.0028587800012653476
240 239 0.0083309372442032896
240 240 0.038747919591888239
241 238 -0.0095714750524282053
241 239 -0.00088867738514543111
241 240 -0.00079811920655507265
241 241 0.053899843138022582
242 238 0.00071388671741867194
242 239 0.00041990359509154983
242 240 0.0019944655948187879
242 241 -0.00047464309169738549
242 242 0.042691432833382573
243 238 0.00079811920655505531
243 239 0.0020119446615914621
243 240 0.00040501502951010139
243 241 -0.0016696647317468079
243 242 0.0093252358520405677
243 243 0.0391912113337963
244 241 -0.0090805754684844097
244 242 -0.0010092145164647399
244 243 -0.00076305628954819653
244 244 0.037629920102935144
245 241 0.0005933495860993628
245 242 0.00064787816610287826
245 243 0.001982411881686861
245 244 0.00016632625670132424
245 245 0.043246014738639101
246 241 0.00076305628954819555
246 242 0.002023998374723399
246 243 0.00045762815086803878
246 244 -4.4503651682835805e-05
246 245 0.020156820618883308
246 246 0.041662893705756342
247 244 -0.0092024577771769554
247 245 -0.00085155598676258867
247 246 -0.00077185804084423581
247 247 0.038080470628514489
248 244 0.00075100811580151416
248 245 0.00059536451576108296
248 246 0.0019981777346570707
248 247 -0.00017219289628411327
248 248 0.04302221782538377
249 244 0.00077185804084425218
249 245 0.0020082325217531797
249 246 0.00044576773337610357
249 247 -0.00011729118620010891
249 248 0.020168421665673862
249 249 0.042145312461863448
250 247 -0.0095225709493554182
250 248 -0.00081201593513309045
250 249 -0.00079465603582347508
250 250 0.038344179338585221
251 247 0.00079054816743101227
251 248 0.00044388319975369726
251 249 0.0020021317398200263
251 250 -2.0593891844788979e-05
251 251 0.042586047341864219
252 247 0.00079465603582347475
252 248 0.0020042785165902341
252 249 0.00041062949843801588
252 250 -1.8226052591886597e-05
252 251 0.02005308211182473
252 252 0.042350109162676348
253 250 -0.0095734121466151505
253 251 -0.00080646022720218941
253 252 -0.00079828472569313635
253 253 0.045373242889259764
254 250 0.00079610387536191397
254 251 0.00042015832880525273
254 252 0.0020026873106131163
254 253 -0.0002591462399585678
254 254 0.037691661941503335
255 250 0.00079828472569313635
255 251 0.002003722945797144
255 252 0.00040514692454905261
255 253 -0.00022608856814829593
255 254 0.01213953370326404
255 255 0.037999133301006974
256 253 -0.0096039089197849994
256 254 -0.00079623097953279015
256 255 -0.00080046232763344061
256 256 0.048887313765615253
257 253 0.00080633312303131268
257 254 0.00040596770517338298
257 255 0.0020037102353800528
257 256 -0.0037313624232476216
257 257 0.042682821182800298
258 253 0.00080046232763342229
258 254 0.0020027000210301985
258 255 0.00040187017563289931
258 256 -0.002884982599064259
258 257 0.0087363474702379824
258 258 0.038932172206553886
259 256 -0.014507059194189573
259 257 0.00058651522230168413
259 258 0.0005436442074606586
259 259 0.041642943216664126
260 256 0.0021890793248657871
260 257 -0.0020584071855565488
260 258 0.0012204258838186223
260 259 0.0012108843422167861
260 260 0.038114234844281558
261 256 0.0021442654394976191
261 257 0.0012143511753376658
261 258 -0.0020513464512752428
261 259 0.0011782755484731854
261 260 0.014837384615253369
261 261 0.037883977019511017
262 259 -0.0094832685238763689
262 260 -0.00077574166928298736
262 261 -0.00079185085740914919
262 262 0.043874567722080177
263 259 0.00082682243328111537
263 260 0.00046222160632194363
263 261 0.0020057591664050314
263 262 0.00012818360992505407
263 263 0.037373406202685894
264 259 0.00079185085740916632
264 260 0.0020006510900052203
264 261 0.00041486719373810642
264 262 -4.6076009461988414e-05
264 263 0.012580651146222579
264 264 0.037791499779779483
265 262 -0.009335165365339201
265 263 -0.00084168194687966381
265 264 -0.00078129693672852852
265 265 0.049367815069135623
266 262 0.00076088215568443978
266 263 0.00053204103227527167
266 264 0.0019991651386453684
266 265 -7.8224878853186408e-05
266 266 0.041165068207616201
267 262 0.00078129693672852982
267 263 0.0020072451177648911
267 264 0.00043104634376741127
267 265 2.1158990096732319e-05
267 266 0.010545343331349514
267 267 0.037758531297227192
268 265 -0.0095609206741996532
268 266 -0.00086711937716982691
268 267 -0.00079737760391986414
268 268 0.039203461191155649
269 265 0.00073544472539427549
269 266 0.00042532580689541333
269 267 0.0019966213956163523
269 268 0.0018158744583614693
269 269 0.043383360493431042
270 265 0.00079737760391986382
270 266 0.0020097888607939073
270 267 0.00040629937479864464
270 268 0.0018044402509668242
270 269 0.019562157911126376
270 270 0.043472359510445049
271 268 -0.010908412309517574
271 269 -0.0028659160849374638
271 270 -0.0029002344320951555
271 271 0.046883566427418991
272 268 -0.0012633519823733628
272 269 -0.0016777274533041405
272 270 0.0019440908451611506
272 271 0.0017936684311964158
272 272 0.039424721321625063
273 268 -0.0012986859242437856
273 269 0.0019371094303895463
273 270 -0.0017898929550279915
273 271 0.0024816799632776773
273 272 0.009749395917235254
273 273 0.03865938714229037
274 271 -0.0097168623281812874
274 272 -0.00062410958637938816
274 273 -0.0010263203663174168
274 274 0.052947050112113744
275 271 0.00097845451618471446
275 272 0.00034773241926377838
275 273 0.0020473207480547883
275 274 0.0002989548774338731
275 275 0.042019096169408722
276 271 0.0005901910339949091
276 272 0.001968649615238603
276 273 0.00038045061250936989
276 274 0.00057975829026944139
276 275 0.0093576765696748079
276 276 0.03835866870954642
277 22 -0.0063212466463484782
277 23 -0.00046652358538293678
277 24 -0.0008333435463212034
277 274 -0.0081337229163516329
277 275 -0.00080128205128204258
277 276 -0.0015044277018080037
277 277 0.033539382882818172
278 22 -0.0020690876879470386
278 23 0.001834263694515077
278 24 0.0016127137698848707
278 274 0.00080128205128206112
278 275 0.0011186852437385288
278 276 0.0020967932707999589
278 277 0.0030802020537113884
278 278 0.044847648440445316
279 22 -0.0019444682747494825
279 23 0.001759793668192897
279 24 0.00027605642869443027
279 274 -0.00011656647779448136
279 275 0.0019096169856102944
279 276 0.00044574529305104724
279 277 0.0027982948088177569
279 278 0.018728338917495015
279 279 0.035312573369484276
280 22 0.0019095019668080723
280 23 -0.0023504954370131932
280 24 -0.001570502607524943
280 280 0.051662207170418153
281 22 -0.00074793133444909067
281 23 -0.0059530154491654139
281 24 0.00079113238396128892
281 280 0.0020262812116679792
281 281 0.065004489755917938
282 22 -0.0016613009560197409
282 23 0.0018459755625763389
282 24 0.00031011592386144543
282 280 -0.0060315346402974365
282 281 -0.00082191014036369801
282 282 0.042425752701332468
283 280 -0.007441347668289168
283 281 0.00374739618971119
283 282 -0.00059187325045084586
283 283 0.068716642664887501
284 280 0.0053499602922752907
284 281 -0.020064058403531943
284 282 -0.0037509375612628819
284 283 -0.007396380853376505
284 284 0.067577251743409283
285 280 -0.00063470598365589648
285 281 -0.0025168901180561429
285 282 -0.0069603702102766082
285 283 0.0087446282991983076
285 284 0.007978119586263906
285 285 0.062096432627261833
286 13 0.0017772683432365406
286 14 0.002267729983110733
286 15 -0.0015829174256103123
286 283 0.0015324374746772914
286 284 -0.00071462447481763017
286 285 -0.0020438145898293474
286 286 0.049082938414686875
287 13 0.00066516588054663052
287 14 -0.006235552169583978
287 15 -0.00082092872823584322
287 283 0.00088793962774647277
287 284 -0.0074069283265006365
287 285 -0.0010902811843947087
287 286 -0.0013011749710376726
287 287 0.064320829515354144
288 13 -0.0016902688648856021
288 14 -0.0019155003658836323
288 15 0.00026346692894977145
288 283 -0.0019506451352676974
288 284 0.00020035435587835107
288 285 0.00062886241357899321
288 286 -0.0067491786423026431
288 287 0.00088815190596784046
288 288 0.041310041475684962
289 7 -0.0018028846153846148
289 8 -2.6688053476566255e-19
289 9 -0.003605769230769231
289 19 -0.0018028846153846148
289 20 0
289 21 0.0036057692307692318
289 289 0.032451923076923087
290 7 -2.6688053476566255e-19
290 8 -0.0018028846153846148
290 9 -0.0036057692307692284
290 19 0
290 20 -0.0018028846153846148
290 21 0.0036057692307692288
290 289 0.016025641025641024
290 290 0.032451923076923059
291 7 -0.002403846153846154
291 8 -0.0024038461538461522
291 9 -0.0063100961538461496
291 19 0.0024038461538461544
291 20 0.0024038461538461527
291 21 -0.0063100961538461505
291 289 -8.6736173798840355e-19
291 290 -8.6736173798840355e-19
291 291 0.025440705128205121
292 4 -0.0018028846153846146
292 5 0
292 6 -0.003605769230769231
292 16 -0.0018028846153846148
292 17 2.6688053476566255e-19
292 18 0.003605769230769231
292 292 0.03245192307692308
293 4 0
293 5 -0.0018028846153846146
293 6 0.0036057692307692284
293 16 2.6688053476566255e-19
293 17 -0.0018028846153846148
293 18 -0.0036057692307692284
293 292 -0.016025641025641024
293 293 0.032451923076923059
294 4 -0.002403846153846154
294 5 0.0024038461538461522
294 6 -0.0063100961538461496
294 16 0.002403846153846154
294 17 -0.0024038461538461522
294 18 -0.0063100961538461496
294 292 0
294 293 0
294 294 0.025440705128205118
295 10 -0.0018028846153846148
295 11 0
295 12 0.0036057692307692318
295 22 -0.0018028846153846148
295 23 2.6688053476566255e-19
295 24 -0.003605769230769231
295 295 0.032451923076923087
296 10 0
296 11 -0.0018028846153846148
296 12 -0.0036057692307692288
296 22 2.6688053476566255e-19
296 23 -0.0018028846153846148
296 24 0.0036057692307692284
296 295 -0.016025641025641024
296 296 0.032451923076923059
297 10 0.0024038461538461544
297 11 -0.0024038461538461527
297 12 -0.0063100961538461505
297 22 -0.002403846153846154
297 23 0.0024038461538461522
297 24 -0.0063100961538461496
297 295 -8.6736173798840355e-19
297 296 8.6736173798840355e-19
297 297 0.025440705128205121
298 1 -0.0018028846153846146
298 2 0
298 3 0.003605769230769231
298 13 -0.0018028846153846148
298 14 -2.6688053476566255e-19
298 15 -0.003605769230769231
298 298 0.03245192307692308
299 1 0
299 2 -0.0018028846153846146
299 3 0.0036057692307692284
299 13 -2.6688053476566255e-19
299 14 -0.0018028846153846148
299 15 -0.0036057692307692284
299 298 0.016025641025641024
299 299 0.032451923076923059
300 1 0.002403846153846154
300 2 0.0024038461538461522
300 3 -0.0063100961538461496
300 13 -0.002403846153846154
300 14 -0.0024038461538461522
300 15 -0.0063100961538461496
300 298 0
300 299 0
300 300 0.025440705128205118
301 85 -0.02546964362653225
301 86 0.013644716639593123
301 87 -0.0012531364261883402
301 88 -0.01100504192398272
301 89 -0.01202757017662081
301 90 0.00015900101869802097
301 301 0.10157202919225396
302 85 0.013644716639593124
302 86 -0.021933192224844078
302 87 -0.00044778521169523423
302 88 -0.012027570176620808
302 89 -0.017031261863700548
302 90 -0.00066075092054694844
302 301 -0.0045584842291578765
302 302 0.087513277414892038
303 85 -0.0028259361966011878
303 86 0.0019331761438219019
303 87 -0.010332236818241075
303 88 0.0012562324207424844
303 89 0.0014656745230090741
303 90 -0.0042682668060474178
303 301 -0.00068910144649638252
303 302 0.006304097089690955
303 303 0.078251946329015526
304 82 -0.0086434490955041628
304 83 0.010668458936935299
304 84 0.0029197667959662151
304 85 -0.019965189683176232
304 86 -0.011469814658570011
304 87 0.0017345745735568769
304 301 -0.020087848258924915
304 302 -0.0016645683936018353
304 303 0.00034671412191745381
304 304 0.11148140710824674
305 82 0.010668458936935299
305 83 -0.014245029268393454
305 84 -0.0029889104962687297
305 85 -0.011469814658570011
305 86 -0.017861092845825304
305 87 0.0011089669454244764
305 301 -0.001664568393601836
305 302 -0.00011984016680040331
305 303 -0.0013326968330296203
305 304 -0.0048549533646292647
305 305 0.094605046521611363
306 82 0.0013023672008668911
306 83 -0.00059011908400522168
306 84 -0.0019128312887394588
306 85 0.0030698431466752879
306 86 0.0034210536384290968
306 87 -0.0087371421698867503
306 301 0.0035518423270456565
306 302 -0.0011197937120556614
306 303 0.00063621365521346947
306 304 -0.011757048328264842
306 305 0.0031327343672632206
306 306 0.093367778674568927
307 79 -0.0080205002548099195
307 80 0.010558773594441778
307 81 0.0029350333260702126
307 82 -0.0079303256095426509
307 83 -0.010535631042211616
307 84 -0.0029214203526678629
307 304 -0.029673850660483149
307 305 0.0035848427852342049
307 306 0.0038432969524653466
307 307 0.10528779096689066
308 79 0.010558773594441778
308 80 -0.014242605870539871
308 81 -0.0029031516143074223
308 82 -0.010535631042211616
308 83 -0.014499560019665039
308 84 -0.0029325982304108313
308 304 0.0035848427852342053
308 305 -0.0057500147755287535
308 306 -0.0014110759240272216
308 307 -0.0074772365981990649
308 308 0.089585964906444743
309 79 0.0013400665628402709
309 80 -0.00049374219036986172
309 81 -0.0016470851695763187
309 82 -0.0013486205822550144
309 83 -0.0005058672782356638
309 84 -0.0016987470367878714
309 304 0.0070484251575935516
309 305 -0.0014110759240272218
309 306 -0.0066595560801699077
309 307 -0.010862879629698553
309 308 0.0033134495197857539
309 309 0.092265558626079325
310 76 -0.0080938504162486168
310 77 0.010582851692594038
310 78 0.0028974207475257782
310 79 -0.0083845878561839421
310 80 -0.010689743865498414
310 81 -0.0029125495838855007
310 307 -0.030024224202187824
310 308 0.0033467507473576921
310 309 0.0038817866496762836
310 310 0.10130466200599945
311 76 0.01058285169259404
311 77 -0.014499418300409199
311 78 -0.0029081113729256701
311 79 -0.010689743865498414
311 80 -0.01444965728278768
311 81 -0.0028986170511336147
311 307 0.0033467507473576908
311 308 -0.0058601686449266154
311 309 -0.0011584791959362883
311 310 0.0010159613845118444
311 311 0.078324214465572778
312 76 0.0013178337008499955
312 77 -0.00050325705070497463
312 78 -0.0017724408098953718
312 79 -0.0012951499887861764
312 80 -0.00048971615570481434
312 81 -0.0017893136667385947
312 307 0.0071890365234640709
312 308 -0.0011177563226952344
312 309 -0.0067813318869056676
312 310 8.082532306069503e-05
312 311 0.0085913382458628791
312 312 0.084864739835227673
313 73 -0.0010934156668992116
313 74 0.0070861315636600534
313 75 -0.00018306862623518219
313 76 -0.0051271081406448499
313 77 -0.007355579713683948
313 78 0.00042084015292844298
313 310 -0.029947860452543135
313 311 -0.0037374967246898514
313 312 -0.0072122485482596869
313 313 0.094075468088193795
314 73 0.0070861315636600534
314 74 -0.0080139782896685753
314 75 -0.0017911588124629894
314 76 -0.0073555797136839471
314 77 -0.01905060193283762
314 78 0.0028413851629404416
314 310 -0.0037374967246898518
314 311 -0.0060986485285315891
314 312 -0.0014019840739747773
314 313 0.0041515098481087389
314 314 0.09287344851312497
315 73 -0.0017951641494532591
315 74 0.00060808605064870895
315 75 0.0038869780854011949
315 76 0.002015806916158385
315 77 0.0052396680466951897
315 78 -0.0036174554202937988
315 310 -0.0040071203431314819
315 311 -0.0014019840739747775
315 312 -0.007041001718758242
315 313 0.0060422491227261257
315 314 -0.0070335340963778321
315 315 0.088141250133232971
316 70 0.0013958309645760343
316 71 0.0042745953302486279
316 72 -0.00032080104040188334
316 73 -0.003372445513089125
316 74 -0.0052242660300668518
316 75 0.0011328949409493325
316 313 -0.027703055983794161
316 314 0.00037331512362732239
316 315 -0.0020272486592796211
316 316 0.087960950677292579
317 70 0.0042745953302486279
317 71 -0.0028007905231208566
317 72 -0.0010198288729211943
317 73 -0.0052242660300668518
317 74 -0.015211491732812154
317 75 0.0016170735264387
317 313 0.0003733151236273225
317 314 -0.0023495059802987619
317 315 -0.00039402091133798731
317 316 -0.0029760567296668221
317 317 0.086291534523824542
318 70 -0.0019430222602586471
318 71 0.0013863844338889053
318 72 0.0092299348602119212
318 73 0.0027124819876251146
318 74 0.0040199115119103129
318 75 -0.002445978755827527
318 313 0.0012640263168103164
318 314 -0.00038243398570110662
318 315 -0.0025781646663536237
318 316 0.0065161890827329979
318 317 -0.0099973407540272213
318 318 0.090635508908739268
319 67 -0.00026020222728475733
319 68 0.0056436027218186111
319 69 -0.00074223380397579427
319 70 -0.001993429760847207
319 71 -0.0049631734900755639
319 72 -2.3836036910728766e-05
319 316 -0.019396457020708271
319 317 0.0012968060623344761
319 318 -0.0022505603623446673
319 319 0.081969345524641246
320 67 0.0056436027218186111
320 68 -0.0058758500808370907
320 69 0.0011525028295148569
320 70 -0.004963173490075563
320 71 -0.010874418842291674
320 72 0.0014862035390948792
320 316 0.0012968060623344761
320 317 -0.00030796692216265446
320 318 -0.0010599242311193956
320 319 -0.0037413313656687588
320 320 0.084207700093976628
321 67 -0.0023579065838312523
321 68 0.003554088294894682
321 69 0.0045777370081427626
321 70 0.0015882594863073484
321 71 0.0038946509836754882
321 72 0.001058011786103596
321 316 0.00095456784278353699
321 317 -0.0010599242311193954
321 318 0.00061427768115585838
321 319 0.0011489909712935594
321 320 -0.0087986938278879958
321 321 0.086428295361486843
322 64 -0.00098186760045205351
322 65 0.0069359652473178889
322 66 -0.0011410120426795065
322 67 -0.0048514549436897772
322 68 -0.0063431888214842292
322 69 0.00052236502933454077
322 319 -0.025702818754047944
322 320 0.003102438748938749
322 321 -0.0054642592940840808
322 322 0.092772469495617862
323 64 0.0069359652473178863
323 65 -0.0079439631808103581
323 66 0.00045676626562399854
323 67 -0.0063431888214842301
323 68 -0.018275553891923091
323 69 0.0024663578647409028
323 319 0.003102438748938749
323 320 -0.0042119827756478814
323 321 -0.00025335302070491413
323 322 -0.008885149665167541
323 323 0.10011262608123822
324 64 -0.0027435463318765674
324 65 0.0028590043537192206
324 66 0.0032129346015190036
324 67 0.0021445862491913043
324 68 0.0048678368656231074
324 69 -0.0037583452734595065
324 319 -0.0021695368735379942
324 320 -0.00025694555159639526
324 321 -0.0041028174709631139
324 322 0.0010165105594990634
324 323 -0.0099968935719694976
324 324 0.092419756981170012
325 61 -0.00063919153677361937
325 62 0.0063389473028548065
325 63 -0.0004904625680714782
325 64 -0.004359716068814936
325 65 -0.0071204829804509331
325 66 0.0011002049036845467
325 322 -0.028685702873775552
325 323 0.0050215706607006144
325 324 0.00059412891350285558
325 325 0.085404197727051309
326 61 0.0063389473028548065
326 62 -0.0069935434532270415
326 63 0.00031127704833080344
326 64 -0.007120482980450934
326 65 -0.016969851737701463
326 66 0.0018341489267079455
326 322 0.0050215706607006135
326 323 -0.008436228237701026
326 324 -0.00079015291523489213
326 325 -0.003596997812688827
326 326 0.075265253471931054
327 61 -0.0020902836128789768
327 62 0.0027158486933755218
327 63 0.0040582400083168414
327 64 0.0027158776835400048
327 65 0.004240255769020429
327 66 -0.0022465853586741318
327 322 0.0038198085821339236
327 323 -0.0007871992574620464
327 324 -0.0070779067183048827
327 325 0.0073767549585077967
327 326 -0.0029921790766744877
327 327 0.084453516196125039
328 58 -0.00087427938676917425
328 59 0.0065153706161099629
328 60 -0.00056605810576696282
328 61 -0.0040763615479964821
328 62 -0.0064161894031185525
328 63 0.00046425406344054447
328 325 -0.027066932970858153
328 326 -0.0011540792617255025
328 327 -0.010639125804180107
328 328 0.093158959973889441
329 58 0.0065153706161099629
329 59 -0.0074540310504746191
329 60 0.00096415448630582466
329 61 -0.0064161894031185534
329 62 -0.016530013624631443
329 63 0.00089557208781235393
329 325 -0.0011540792617255023
329 326 -0.0037052942617596283
329 327 -0.0014073571796497507
329 328 0.00067876087644810023
329 329 0.097921564805880143
330 58 -0.0021600345076581576
330 59 0.0033700922288954303
330 60 0.0033891945111524961
330 61 0.0020667883526376048
330 62 0.0033010263074094402
330 63 -0.0017616558149456906
330 325 -0.0074421796774014424
330 326 -0.0014087993480611594
330 327 -0.0073619739127291023
330 328 0.011388557848969217
330 329 -0.0098465141817944638
330 330 0.094298692854022495
331 55 0.00055293894458572561
331 56 0.0050358605899916828
331 57 -0.00037742562193714873
331 58 -0.0044431988595299036
331 59 -0.005743795700007711
331 60 0.00096735477446907342
331 328 -0.02697045693823381
331 329 0.0030717828587200086
331 330 -0.0053825711629234153
331 331 0.088890504961762914
332 55 0.0050358605899916819
332 56 -0.0045291702642332593
332 57 -0.00088345978917220346
332 58 -0.005743795700007711
332 59 -0.017343748533876234
332 60 0.0014060686292565853
332 328 0.0030717828587200086
332 329 -0.0042484293695834452
332 330 -5.0572988861371506e-05
332 331 -0.007890664173199901
332 332 0.088805598559266466
333 55 -0.0019722969587786564
333 56 0.001525913356418441
333 57 0.007032829655397697
333 58 0.0025671758192765707
333 59 0.0038091892919041746
333 60 -0.0029524438596406077
333 328 -0.0021774429577952094
333 329 -5.057298886137129e-05
333 330 -0.0045828578748451365
333 331 0.0089587971465371601
333 332 -0.01287692191676916
333 333 0.088103555125196201
334 52 -0.0089274238292490656
334 53 0.0062726283668093075
334 54 -0.00082638467377745841
334 55 0.0010084826615746861
334 56 -0.0050330348023919077
334 57 0.00037721383596268487
334 331 -0.02367792402732493
334 332 0.00096594757683332382
334 333 -0.004087648189611646
334 334 0.09803876184267378
335 52 0.0062726283668093066
335 53 -0.034476414758760024
335 54 0.0029700080499340158
335 55 -0.0050330348023919069
335 56 -0.004029708501287501
335 57 -0.003176679095984103
335 331 0.00096594757683332371
335 332 -0.0011198014605757994
335 333 -0.00142779845888644
335 334 0.0088384824384878449
335 335 0.10607900018677213
336 52 -0.0024026022078084625
336 53 0.0053770408412642298
336 54 -0.012757136315106903
336 55 0.0019711902378538801
336 56 -0.00077492453088139968
336 57 0.0085524549984506131
336 331 -0.00090244977267318199
336 332 -0.0014459386656407286
336 333 -0.00090377087457766412
336 334 -0.0050123319909646724
336 335 -0.0043663929901673303
336 336 0.086991839517482655
337 49 -0.00055541587285580355
337 50 0.005975644620612083
337 51 -0.00072429631193712991
337 52 -0.0012657901178918503
337 53 -0.0060296065770428179
337 54 0.00076745076904976292
337 334 -0.028527033593155879
337 335 -0.0053441124643819199
337 336 0.0058187360349989652
337 337 0.086359900073708862
338 49 0.005975644620612083
338 50 -0.0066698343796028035
338 51 0.00091529768236641037
338 52 -0.0060296065770428179
338 53 -0.0072392014701968743
338 54 0.0037783599052405646
338 334 -0.0053441124643819182
338 335 -0.011406495396191336
338 336 0.0019202338064551704
338 337 0.0038762586702013762
338 338 0.085524630629587636
339 49 -0.0022905651443496759
339 50 0.0033087797538307491
339 51 0.0039646909407941352
339 52 0.002362322105891271
339 53 0.006176679067342223
339 54 0.0019297250085653977
339 334 0.0090173512442089689
339 335 0.0018779966150149336
339 336 -0.012063134964869274
339 337 -0.0038085001787908314
339 338 -0.014407160239554755
339 339 0.094047320591542471
340 46 -0.0014429307737856226
340 47 0.0071034537883824063
340 48 -0.0032623520789138152
340 49 -0.008168142945388179
340 50 -0.0046334072850944307
340 51 0.00088494148904022562
340 337 -0.024494647739348088
340 338 0.0023899473739813566
340 339 -0.0054748512812726122
340 340 0.080010754114548915
341 46 0.0071034537883824071
341 47 -0.0083515006347050641
341 48 0.001296797663018026
341 49 -0.0046334072850944307
341 50 -0.023763903723916454
341 51 0.0061779096541869569
341 337 0.0023899473739813566
341 338 -0.0032694600673058177
341 339 -0.00022388161780560799
341 340 -0.00048794129159809152
341 341 0.08129924110910626
342 46 -0.0048606500838157402
342 47 0.0036866979836319984
342 48 0.0026409021576690108
342 49 0.0024611590230712312
342 50 0.0085785691705490517
342 51 -0.010811724813230162
342 337 -0.002269723076144408
342 338 -0.00022388161780560826
342 339 -0.0032921062031844002
342 340 0.008995112003079125
342 341 -0.0068770333822672242
342 342 0.087182703647713661
343 43 -0.00080689546588859503
343 44 0.0067715452993429787
343 45 -0.00036423678413728309
343 46 -0.0054767685635255768
343 47 -0.0087984037578534187
343 48 0.0027136899402924672
343 340 -0.01652704912775782
343 341 -0.00027757164106174124
343 342 -0.0024279638391495333
343 343 0.088576982154996944
344 43 0.0067715452993429787
344 44 -0.0075575696721956612
344 45 -0.00054426459152471412
344 46 -0.0087984037578534187
344 47 -0.016982607834905971
344 48 0.0046221712950738547
344 340 -0.00027757164106174091
344 341 0.0010714305341402452
344 342 -6.8186623788382954e-05
344 343 -0.0079048608992084556
344 344 0.092825799769316125
345 43 -0.0019621664149287758
345 44 0.0018636958908677421
345 45 0.0039180744855109905
345 46 0.0042799587727050132
345 47 0.0070363815313018233
345 48 -0.0042440941974904054
345 340 0.0007775166647478785
345 341 -2.1040791393217833e-05
345 342 0.0020750644000242817
345 343 -0.0059272413011567451
345 344 -0.00057455154135437492
345 345 0.090173638126520295
346 40 -0.009583192036516773
346 41 0.011699878393384048
346 42 0.0025266770632411508
346 43 -0.0072700147374027491
346 44 -0.010587828566780134
346 45 -0.0034462929833067937
346 343 -0.028019881326720342
346 344 0.0034402782377183231
346 345 -0.0010893753810466999
346 346 0.11059300514288585
347 40 0.011699878393384048
347 41 -0.016357741731065828
347 42 -0.0030791943936238722
347 43 -0.010587828566780134
347 44 -0.015665319709468269
347 45 -0.0042529950518309465
347 343 0.0034402782377183235
347 344 -0.0044903927736993348
347 345 -0.00076770498653585986
347 346 -0.0091402622822211871
347 347 0.097322882014293205
348 40 0.00095341464441686381
348 41 -0.00065559702645048346
348 42 -0.0029204803835040515
348 43 -0.0018479949784048699
348 44 -0.0018352030647526059
348 45 -0.002209400645206791
348 343 0.0021170464895521441
348 344 -0.00078670815886328755
348 345 -0.0041489307638239003
348 346 -0.0076934943732180541
348 347 0.0026253158434317476
348 348 0.08677381638012556
349 37 -0.010147095308530054
349 38 0.011006511696701547
349 39 0.0013546739972057609
349 40 -0.010061534631338085
349 41 -0.011717373902176554
349 42 -0.0025506715539635001
349 346 -0.035305211681600036
349 347 0.0034623064926511361
349 348 0.0018085212640324751
349 349 0.11436763112347567
350 37 0.011006511696701547
350 38 -0.01551517497985231
350 39 -0.0015335945482748059
350 40 -0.011717373902176554
350 41 -0.015919290329737094
350 42 -0.0031485907235384572
350 346 0.0034623064926511365
350 347 -0.0050128406146656007
350 348 -0.0012359046384550795
350 349 -0.0069725282902084254
350 350 0.093609478705627067
351 37 1.9405424087349501e-05
351 38 0.00077849214472980885
351 39 -0.0031395826875289974
351 40 -0.00095274192317200727
351 41 -0.00074885889823860571
351 42 -0.0030115383616121406
351 346 0.005001286821372926
351 347 -0.0013081289055919881
351 348 -0.006325593454461452
351 349 -0.0026887772841238107
351 350 -0.0016879715231927224
351 351 0.085938065352172285
352 34 -0.013201856949704447
352 35 0.012218136901954
352 36 -0.001033447763299716
352 37 -0.016991410017414232
352 38 -0.012220234062107774
352 39 -0.0010498806528041922
352 349 -0.030383432370309271
352 350 0.0050073075504133615
352 351 0.00077117571339272968
352 352 0.10667181098972033
353 34 0.012218136901954002
353 35 -0.017063322006205972
353 36 0.00014760202279235019
353 37 -0.012220234062107775
353 38 -0.018799030037372263
353 39 -0.0020470813884735269
353 349 0.0050073075504133615
353 350 -0.0050882745574046644
353 351 -0.0017982874402414795
353 352 0.0012347300408097331
353 353 0.082039044002178013
354 34 -0.0021280194009475032
354 35 0.0022581585902727653
354 36 -0.0054678405526040171
354 37 0.00052338176602009453
354 38 0.00033701355204538829
354 39 -0.005956732226305766
354 349 0.0039471337420083933
354 350 -0.0020927964896954995
354 351 -0.0044031064175736835
354 352 -0.0014043423995015458
354 353 0.00012070511661096874
354 354 0.074321373007157229
355 151 -0.017310923056483497
355 152 -0.01075954243545316
355 153 0.0037592694804318609
355 154 -0.02383609387758889
355 155 0.0074984896872845788
355 156 0.0082062921242623942
355 352 -0.01475163367561916
355 353 -0.013042996673347872
355 354 -0.00064081464058869349
355 355 0.096918943752342696
356 151 -0.01075954243545316
356 152 -0.0094112204239153174
356 153 0.0021629748063003397
356 154 0.0074984896872845796
356 155 -0.0057565754393964861
356 156 -0.0030066576862715368
356 352 -0.013042996673347873
356 353 -0.012547938362747955
356 354 -0.0014612282601577746
356 355 0.0079580944106334723
356 356 0.10671194877429106
357 151 0.0014997668785703187
357 152 0.00092892736309360051
357 153 -0.0035705000591993857
357 154 0.006095735556781977
357 155 -0.0019120860486237473
357 156 -0.0081637545864755891
357 352 0.0014405717503791831
357 353 0.00035481925786861967
357 354 -0.0028676840130593823
357 355 -0.0043157018760601965
357 356 0.0052990096839015035
357 357 0.085915183445104584
358 148 -0.015259143257415252
358 149 -0.0032307699868895632
358 150 -0.00079089815709006183
358 151 -0.018580400696912476
358 152 0.0062809533522911959
358 153 -0.00075178159324751164
358 355 -0.000115925894421101
358 356 2.6150802380383014e-06
358 357 0.00030199499619624885
358 358 0.081688848853851581
359 148 -0.0032307699868895623
359 149 -0.021245891264222473
359 150 -0.0034640330631574407
359 151 0.0062809533522911959
359 152 -0.024050676822941056
359 153 0.0025439939424044059
359 355 2.6150802380379219e-06
359 356 -0.012187813737564345
359 357 0.0051643920201145787
359 358 -0.0054107791867531521
359 359 0.12008537658437068
360 148 -0.0028849016337899871
360 149 -0.0045188762417724907
360 150 -0.0099594388183369912
360 151 -0.0031382962318007822
360 152 0.0038346294826774657
360 153 -0.010390945870436607
360 355 0.00027282481968370813
360 356 0.008075011175788762
360 357 -0.0015405567130917469
360 358 -0.01192089485553713
360 359 0.0033471186881476583
360 360 0.12214381749008185
361 142 -0.019863294163354701
361 143 0.012352930886362596
361 144 -0.00022389798261250159
361 145 -0.0049216329485375016
361 146 -0.0072769530178384851
361 147 0.0029601729185585548
361 358 -0.0049411502599105879
361 359 0.0055187982256568856
361 360 0.0062623866927776634
361 361 0.11495205299947467
362 142 0.012352930886362598
362 143 -0.018181784744998649
362 144 0.0012628080400485858
362 145 -0.0072769530178384851
362 146 -0.022647732527100534
362 147 0.0082700933339990932
362 358 0.0055187982256568856
362 359 -0.003819097198948491
362 360 -0.0048818011721634405
362 361 -0.00405230999292229
362 362 0.096758024829920616
363 142 0.0013926134176998248
363 143 -0.0011056036208170344
363 144 -0.0071343432796253381
363 145 0.0018490481901302759
363 146 0.0061198083074859386
363 147 -0.0077100436092964108
363 358 0.0041392130395651958
363 359 -0.0030260251951043063
363 360 -0.00073405985941206702
363 361 -0.0106715196615583
363 362 -0.0080059429711780705
363 363 0.08412140684735242
364 139 -0.016922963096838706
364 140 0.01048913953757389
364 141 -0.0025460810760695998
364 142 -0.016234278070889292
364 143 -0.011037600341158364
364 144 -0.0003627953050806321
364 361 -0.017502893747521439
364 362 -0.0018436250210232396
364 363 -0.00010445327075962968
364 364 0.10786380297618731
365 139 0.010489139537573891
365 140 -0.025417164176660102
365 141 0.002373941927369443
365 142 -0.011037600341158364
365 143 -0.016681168273581896
365 144 -0.00048609884274235324
365 361 -0.0018436250210232394
365 362 0.00049235142839958981
365 363 0.00075363184398195013
365 364 0.0012448359167436811
365 365 0.099293452866076326
366 139 -0.00094453256821822929
366 140 -2.2922811705106214e-05
366 141 -0.0089577420113721301
366 142 -0.0017506565290941539
366 143 -0.0028899449965885098
366 144 -0.0062676021680863501
366 361 -0.003338751652400376
366 362 0.00045912279452793017
366 363 0.001615854621838012
366 364 0.015991633634258037
366 365 -0.0089660655019001504
366 366 0.096457256368331412
367 136 -0.00022278162636074947
367 137 0.0055656314163789319
367 138 0.00078931834004812183
367 139 -0.0010022907647905621
367 140 -0.0056041420565198265
367 141 -0.00082322829374700856
367 364 -0.023878668935191843
367 365 -0.0031764508283583081
367 366 -0.0089780110846940028
367 367 0.086177803480255957
368 136 0.0055656314163789319
368 137 -0.00585469795110302
368 138 -0.0010145006734777256
368 139 -0.0056041420565198265
368 140 -0.0066664652255051674
368 141 -0.0038122679352066667
368 364 -0.0031764508283583085
368 365 -0.0064190639585104004
368 366 -0.0015234766249323109
368 367 -0.0027147640475833931
368 368 0.086772637936012517
369 136 0.0023840735478878501
369 137 -0.0034315142925014333
369 138 0.0047240313392576359
369 139 -0.0024397396940593341
369 140 -0.0062515485820333521
369 141 0.002438923861780243
369 364 -0.012195501937609963
369 365 -0.0015957008920692232
369 366 -0.01140064850898543
369 367 0.013640226568269019
369 368 0.015281439108556559
369 369 0.10836438359567903
370 133 0.00010017583230177414
370 134 0.0054631206531187068
370 135 0.0020103324068456658
370 136 -0.0056980160981639095
370 137 -0.0046629056383956646
370 138 -0.0010555479827953425
370 367 -0.026024397883181182
370 368 0.0050635046333458861
370 369 0.00068374283885626113
370 370 0.083790332063022638
371 133 0.0054631206531187059
371 134 -0.0056586295413931023
371 135 -0.00046206972145264107
371 136 -0.0046629056383956646
371 137 -0.018457869664478835
371 138 -0.004109430297097782
371 367 0.0050635046333458869
371 368 -0.0088121648994991669
371 369 0.0007492481582567212
371 370 -0.00379795682769436
371 371 0.077180497762400158
372 133 0.0035729262803027243
372 134 -0.0028739958544183194
372 135 0.0055044937001489675
372 136 -0.0026570964906467132
372 137 -0.006520257865715539
372 138 -0.0064515931106764769
372 367 -0.0025200917008013032
372 368 0.00073024498592929405
372 369 -0.0069848073428780064
372 370 -0.0075220976983151307
372 371 0.0075786813826903554
372 372 0.093916832030152886
373 130 -0.0083544438191541712
373 131 0.010647899053965258
373 132 -0.0028557704439975177
373 133 -0.0087529813317585702
373 134 -0.010303764260527683
373 135 0.0025802584889369549
373 370 -0.012126427461339302
373 371 0.00021824318976637304
373 372 0.0031975137381509916
373 373 0.098200084662965176
374 130 0.010647899053965256
374 131 -0.014698703968174423
374 132 0.0028751625223866115
374 133 -0.010303764260527681
374 134 -0.013617334751486724
374 135 0.002193854035358796
374 370 0.00021824318976637245
374 371 0.0016916056965622134
374 372 -0.00060853908099091098
374 373 0.00026777224553430025
374 374 0.077384690842190573
375 130 -0.0012720687291792026
375 131 0.00047642444494027042
375 132 -0.0019011017623904759
375 133 0.00098550328109722621
375 134 -0.00019682465330980443
375 135 -0.0014885354080658348
375 370 -7.2621682080069435e-06
375 371 -0.00056139324859574521
375 372 0.0046229714510449289
375 373 0.0020886401761429059
375 374 -0.0078497525530176158
375 375 0.085807696006311981
376 127 -0.0086944780299049677
376 128 0.01118866726201314
376 129 -0.0029475909948672575
376 130 -0.0079889017554448244
376 131 -0.010515181050399119
376 132 0.0028780115311737324
376 373 -0.029312584539293408
376 374 -0.003562836297462066
376 375 0.0069170434189207951
376 376 0.10784663783963742
377 127 0.01118866726201314
377 128 -0.015994308741324591
377 129 0.0037188220666791827
377 130 -0.010515181050399119
377 131 -0.014433945677360832
377 132 0.0028745475175389638
377 373 -0.003562836297462066
377 374 -0.0056833761298498309
377 375 0.0012931118460212684
377 376 0.0006555319862261242
377 377 0.10082336500686506
378 127 -0.001346969762830298
378 128 0.0013210506213139871
378 129 -0.0024875051173080197
378 130 0.0013154176577166738
378 131 0.00047878134281233381
378 132 -0.0017466694626558669
378 373 0.0037119152137925901
378 374 0.0012931118460212682
378 375 -0.0065258212857549069
378 376 0.0020784754341514537
378 377 0.0009945607146006649
378 378 0.10142941067603574
379 124 -0.0049156685692398235
379 125 0.0064446938276367096
379 126 0.00055295205827852437
379 127 -0.0010363014736251284
379 128 -0.0070002065796610658
379 129 -0.0011174513020240522
379 376 -0.02797488951597682
379 377 0.0018167888278104241
379 378 -0.0060838681469805641
379 379 0.08473552862067317
380 124 0.0064446938276367105
380 125 -0.018571095700361591
380 126 -0.0026593742337660859
380 127 -0.0070002065796610658
380 128 -0.0082245339655261061
380 129 -0.00027453552063271935
380 376 0.0018167888278104241
380 377 -0.0041383215128859762
380 378 0.0014175246281696871
380 379 0.0026389773294799878
380 380 0.076501776265518837
381 124 0.0021538767135453867
381 125 -0.0050622101732623881
381 126 -0.003910594186947277
381 127 -0.0027011530168423678
381 128 -0.0026834897508786868
381 129 0.0031544455250798989
381 376 -0.0092955093480269705
381 377 0.001375287436729451
381 378 -0.0067313063509522571
381 379 0.0047461499059754551
381 380 0.0029045938946552952
381 381 0.084675928889708929
382 121 -0.0035437660624229646
382 122 0.0056041448127799164
382 123 0.00081772353588110264
382 124 -0.00033884932492823309
382 125 -0.0056252746570286628
382 126 -0.00081865211272016936
382 379 -0.026756227965188138
382 380 -0.0054483416851219008
382 381 0.0023280968085866074
382 382 0.08948362095094331
383 121 0.0056041448127799164
383 122 -0.014827661167501505
383 123 -0.0012780041528629546
383 124 -0.0056252746570286637
383 125 -0.0059966472391318453
383 126 -0.0011783574852835422
383 379 -0.0054483416851219
383 380 -0.0095494474035200307
383 381 0.00072206889609694174
383 382 0.010892819022564898
383 383 0.094910544794010412
384 121 0.0024142929872673757
384 122 -0.0036828859418931341
384 123 -0.0012029548611348353
384 124 -0.0024192733447571295
384 125 -0.0035882783476106506
384 126 0.0044659858594738675
384 379 -0.00089696118473133954
384 380 0.00070392868934265299
384 381 -0.0074659448216088716
384 382 -0.0014036943487383512
384 383 0.013598769959786592
384 384 0.10131466768798417
385 118 -0.0035463632940464281
385 119 0.0056051532787338449
385 120 0.00083413795758187944
385 121 -0.00035550967924048108
385 122 -0.0056274644049967883
385 123 -0.00081654731175593177
385 382 -0.02662698062887554
385 383 -0.0053220977087899326
385 384 0.0022774378013465397
385 385 0.089309235163037071
386 118 0.005605153278733844
386 119 -0.014879039020141351
386 120 -0.0012932478447856407
386 121 -0.0056274644049967883
386 122 -0.0059772103861336478
386 123 -0.0011685973209327608
386 382 -0.0053220977087899326
386 383 -0.0093808539759213227
386 384 0.00069027102419059365
386 385 0.01067348815258775
386 386 0.094671732043576109
387 118 0.0024234500292288292
387 119 -0.0036992407754020042
387 120 -0.0012191855691704419
387 121 -0.0024174719670227943
387 122 -0.0035734536891287678
387 123 0.0044614236321414945
387 382 -0.00092769040378166577
387 383 0.00069027102419059322
387 384 -0.0073837307727006671
387 385 -0.0013660840414364962
387 386 0.013635422403219683
387 387 0.10106585881864477
388 115 -0.00074039271589831143
388 116 0.0055389006465815793
388 117 0.00074130379264261389
388 118 -0.00039245564031626545
388 119 -0.0056341000951967675
388 120 -0.00083652807157566815
388 385 -0.026628948219439438
388 386 -0.0053058711116036033
388 387 0.0022648609317897682
388 388 0.094989267468131536
389 115 0.0055389006465815793
389 116 -0.0066500016681891819
389 117 -0.0036606869526844593
389 118 -0.0056341000951967667
389 119 -0.0060174343218419978
389 120 -0.0011933122680540119
389 385 -0.0053058711116036033
389 386 -0.00937980802240195
389 387 0.00066423796263258283
389 388 6.699482820882131e-05
389 389 0.11306149543507441
390 115 0.0022850198743311024
390 116 -0.0060745878936267223
390 117 0.0024557332525398799
390 118 -0.0024330975229619402
390 119 -0.0035961227867161382
390 120 0.0043916170843557693
390 385 -0.00094844935168797873
390 386 0.00066279579422117416
390 387 -0.007356663215220491
390 388 -0.004681216550128855
390 389 0.024934214444103434
390 390 0.1113282153546967
391 112 -0.008101557956671725
391 113 0.010558933869273939
391 114 -0.0028199920754224828
391 115 -0.016422847751744164
391 116 -0.011372772871743982
391 117 0.0023191307992926407
391 388 -0.027431650914444571
391 389 0.0066090772956824547
391 390 0.0053680553446717825
391 391 0.10529841597065823
392 112 0.010558933869273939
392 113 -0.015235792853696695
392 114 0.002922535217187959
392 115 -0.011372772871743979
392 116 -0.026392133485591048
392 117 0.0026021901011816975
392 388 0.0066090772956824547
392 389 -0.015881336311834679
392 390 -0.0017369765689583569
392 391 -0.00080517962362032904
392 392 0.10070072740612956
393 112 -0.0012938794963260915
393 113 0.00047710257030526804
393 114 -0.0019820006530850624
393 115 0.00072981872764568993
393 116 0.0002004907241057542
393 117 -0.0088158946350026142
393 388 0.00218347860304644
393 389 -0.001734022911185509
393 390 -0.013383116822266058
393 391 -0.010083101782237336
393 392 -0.010674518982658717
393 393 0.090983816169746948
394 109 -0.010582267347232279
394 110 0.010171185240653335
394 111 -0.0018623371985878115
394 112 -0.0081054663759933671
394 113 -0.010542792972017304
394 114 0.0027993044255603737
394 391 -0.027143567148543529
394 392 -0.0041850332936548326
394 393 0.0077028986442751902
394 394 0.10975416197905738
395 109 0.010171185240653337
395 110 -0.013778455661123019
395 111 0.0011225162804284728
395 112 -0.010542792972017304
395 113 -0.014408010740024091
395 114 0.0028177620875445022
395 391 -0.0041850332936548334
395 392 -0.0067055258685949151
395 393 0.0015241223784673498
395 394 0.0045919201474139875
395 395 0.094647754929635633
396 109 -0.00026609878547768407
396 110 -0.0012988089401903572
396 111 -0.0021675859532063659
396 112 0.0012555883438718858
396 113 0.00042397072079445567
396 114 -0.0018087344910265731
396 391 0.0045873646545648667
396 392 0.0015205298475758689
396 393 -0.007654742629670053
396 394 -0.015838776147676956
396 395 0.0012672904131832195
396 396 0.097174035132285091
397 106 -0.014812077811575945
397 107 0.013838055633707758
397 108 -0.00076490312294196644
397 109 -0.0089324918234628421
397 110 -0.0097608114797002529
397 111 0.0022083572076178055
397 394 -0.011553201568932466
397 395 -0.00011542446711619179
397 396 0.001916431712643568
397 397 0.1173088935799937
398 106 0.013838055633707758
398 107 -0.019240413758492218
398 108 0.0019272236845468286
398 109 -0.0097608114797002512
398 110 -0.012312746843008263
398 111 0.0013028711654612338
398 394 -0.00011542446711619201
398 395 0.0017593381546922599
398 396 -0.00031578512648443259
398 397 -0.0094555349725476794
398 398 0.094393373801572381
399 106 0.00078182909776057844
399 107 -0.00048215120467029948
399 108 -0.005339695047985908
399 109 0.0006822446285214142
399 110 -0.0010593884953483824
399 111 -0.0013721434233466482
399 394 -0.0012886964924846379
399 395 -0.00031578512648443302
399 396 0.0051807837439796127
399 397 0.018807415323731327
399 398 -0.0029884216213028345
399 399 0.090047241377384013
400 103 -0.0082974788870800367
400 104 0.010624869477910446
400 105 -0.002828662385259229
400 106 -0.015673950651636383
400 107 -0.014168144201697628
400 108 0.00069382711413730892
400 397 -0.034520904620243507
400 398 0.0055991025349503608
400 399 -0.0025995933661648067
400 400 0.11056902527513071
401 103 0.010624869477910446
401 104 -0.014863554339095857
401 105 0.0028770704085596815
401 106 -0.014168144201697628
401 107 -0.019293269266943192
401 108 0.0019670927102908549
401 397 0.0055991025349503599
401 398 -0.0084130946592565481
401 399 0.00072168573583246865
401 400 -0.00041513796073338553
401 401 0.089347328561146647
402 103 -0.0012667383925710509
402 104 0.00046943916202867551
402 105 -0.0019459906612079724
402 106 -0.00090241129897281904
402 107 -0.00041927437678262102
402 108 -0.0055479657669512423
402 397 -0.0057185748003312793
402 398 0.00073327266146934705
402 399 -0.0090325739626477101
402 400 -0.0059805738808558634
402 401 -0.0077211266223547546
402 402 0.081890171990312066
403 100 -0.019813526333641061
403 101 0.012294353618908661
403 102 0.0010136771015048526
403 103 -0.0079955349093342835
403 104 -0.010512386179278761
403 105 0.0028454722285256653
403 400 -0.029031597436080456
403 401 -0.0035567119875947622
403 402 0.0069672035975646557
403 403 0.10574511263296693
404 100 0.012294353618908658
404 101 -0.018136109484988255
404 102 -0.00043910670420444766
404 103 -0.010512386179278761
404 104 -0.01453781427372647
404 105 0.0028657320308888103
404 400 -0.0035567119875947622
404 401 -0.0056178486456149434
404 402 0.0012940560364549112
404 403 0.0046976741150668872
404 404 0.094154704365610839
405 100 0.0026010217283797734
405 101 -0.0028715245469901627
405 102 -0.0077650069223284468
405 103 0.0012987400078231202
405 104 0.00046741461241363237
405 105 -0.0017968906559511682
405 400 0.0037620753924364498
405 401 0.0012940560364549129
405 402 -0.0064807386020262299
405 403 -0.0097813176835837342
405 404 -0.0032464632513996856
405 405 0.091765077983926982
406 97 -0.010725058283824522
406 98 0.011739439776683069
406 99 -0.0021122808393731337
406 100 -0.019232130763573416
406 101 -0.01187239785242401
406 102 -0.00091593263961519799
406 403 -0.016358641872054141
406 404 0.00012478605621138732
406 405 0.0014893402124494712
406 406 0.10936241369932166
407 97 0.011739439776683071
407 98 -0.016544486852740639
407 99 0.0025540071528422402
407 100 -0.01187239785242401
407 101 -0.017187748890081005
407 102 -0.00044303795827049233
407 403 0.00012478605621138732
407 404 0.0016648627491469335
407 405 0.0012864515853353484
407 406 -0.0076529306317859869
407 407 0.0968902584545875
408 97 -0.00053948106896028461
408 98 0.00012727620066706993
408 99 -0.0031655445660988312
408 100 -0.0024778566323033751
408 101 -0.0028430990194317938
408 102 -0.0074447718527519387
408 403 -0.0016136663240191508
408 404 0.0013271744585764034
408 405 0.0024733558355772775
408 406 0.011899979131732779
408 407 -0.0034564072517058076
408 408 0.091400274735292553
409 94 -0.00764934647604271
409 95 0.010455820665869546
409 96 -0.0021871280516071651
409 97 -0.01097962421574028
409 98 -0.01151877486493099
409 99 0.0021009810592826448
409 406 -0.031649462388481459
409 407 0.0043930795714776545
409 408 -0.0038915578392562785
409 409 0.10687131876970753
410 94 0.010455820665869548
410 95 -0.014952336122666998
410 96 0.0024053676440698619
410 97 -0.01151877486493099
410 98 -0.015349219612622157
410 99 0.002501635095795421
410 406 0.0043930795714776545
410 407 -0.0071605307554377185
410 408 0.0012056363511810061
410 409 -0.00091573344937383324
410 410 0.081926242973385063
411 94 -0.00085185947848875649
411 95 9.3280951065242675e-05
411 96 -0.0021198161711621167
411 97 0.00051363643240772447
411 98 0.0001263606308888267
411 99 -0.003030633257861954
411 406 -0.0070966860443844844
411 407 0.0012056363511810039
411 408 -0.0080583510550525511
411 409 -0.0018267555359726974
411 410 -0.0070848608863240438
411 411 0.083962744038487622
412 91 -0.011296300588026999
412 92 0.011974639336831783
412 93 0.00026908067060270715
412 94 -0.014401167937332605
412 95 -0.011280549831959301
412 96 0.0016356383593480229
412 409 -0.03234258329212146
412 410 -0.0026635914553897362
412 411 0.0064259635494175044
412 412 0.12269420806186197
413 91 0.011974639336831783
413 92 -0.017150261325515729
413 93 0.00047434839069829672
413 94 -0.011280549831959301
413 95 -0.017219374447227032
413 96 0.0022461600206384125
413 409 -0.0026635914553897371
413 410 -0.0079217186373665774
413 411 0.00018781729832519599
413 412 0.0037178925869102201
413 413 0.10238991441139857
414 91 0.0013554864355171173
414 92 -0.0016657204219679284
414 93 -0.0044550853362847311
414 94 6.2838588935173616e-05
414 95 -0.00013480133487872559
414 96 -0.0046549803672963994
414 409 0.003220835344289298
414 410 0.00040072041929915445
414 411 -0.0083960072841954836
414 412 -8.0131847479737207e-06
414 413 0.01325952702859098
414 414 0.094349240670474566
415 28 -0.018569416689445908
415 29 -0.011371592465112129
415 30 -0.00067686436826676051
415 31 -0.023708236557321676
415 32 0.0073888979872842476
415 33 -0.0082033918174624458
415 412 -0.02268616602908223
415 413 -0.0099391888270601754
415 414 -0.0053454075671021993
415 415 0.095544243242240506
416 28 -0.011371592465112129
416 29 -0.018696819844234311
416 30 0.00017921102255247625
416 31 0.0073888979872842476
416 32 -0.0054759113015499213
416 33 0.0028733222188941877
416 412 -0.0099391888270601771
416 413 -0.011649453887415569
416 414 -0.0027924690356129372
416 415 0.0077577464370083161
416 416 0.10188990393800859
417 28 0.0016155799010721908
417 29 0.0014490954838962231
417 30 -0.0077934389259681127
417 31 -0.0060846693772486499
417 32 0.0018082628264322093
417 33 -0.0080141953864714521
417 412 -0.0074641300073159953
417 413 -0.0047196347273052042
417 414 -0.0090983394034362969
417 415 0.014736351530749628
417 416 -0.0063870948462815443
417 417 0.084911477835725863
418 25 -0.017045040505169445
418 26 -0.012066558615938243
418 27 -0.00090498609946558528
418 28 -0.02121932290168474
418 29 0.012300495092194795
418 30 -5.770505157461428e-05
418 301 -0.013489357396264279
418 302 0.011861329534779839
418 303 0.0053185930497790584
418 415 0.00072196294432611029
418 416 -7.2748198184279618e-05
418 417 -0.001011422887505122
418 418 0.086930915312660409
419 25 -0.012066558615938241
419 26 -0.011799772539044271
419 27 0.000208018625168151
419 28 0.012300495092194795
419 29 -0.020012445433989067
419 30 -0.00084121464321184659
419 301 0.011861329534779837
419 302 -0.020599763241329675
419 303 -0.0064653290055498788
419 415 -7.2748198184279509e-05
419 416 -0.018053619998800393
419 417 0.0012911110016163435
419 418 0.00057728748489014377
419 419 0.11701099069406236
420 25 0.0012029107036181561
420 26 0.001286721386740332
420 27 -0.004645332906425245
420 28 0.0023219695204300854
420 29 -0.0021400332823275584
420 30 -0.0088335826482835791
420 301 0.0032106962466953177
420 302 -0.0045518066829678128
420 303 -0.0085185654017833345
420 415 -0.0010114228875051224
420 416 -0.0017011140825379015
420 417 0.0010162334329233689
420 418 -0.0065257443372776711
420 419 0.0084174699454247614
420 420 0.086770947678280252
421 4 -0.013799559865730674
421 5 0.01241216430830655
421 6 0.0015081844610777785
421 34 -0.033040685042509656
421 35 -0.013345796435127739
421 36 0.001432658953124181
421 154 -0.018979204863043025
421 155 -0.0088416481442712309
421 156 0.0050531209713493078
421 352 -0.016673913428367167
421 353 0.0023808438473962483
421 354 -0.00027807511307779075
421 355 -0.0060092753151227236
421 356 -0.00086612528190693153
421 357 -0.0018589512505143874
421 421 0.098859603884277766
422 4 0.012412164308306547
422 5 -0.013799559865730671
422 6 -0.0015081844610777865
422 34 -0.013345796435127739
422 35 -0.029218746000768483
422 36 -0.00015516558001471038
422 154 -0.0088416481442712309
422 155 -0.0066651165198023336
422 156 0.0035452218327859477
422 352 0.0023808438473962475
422 353 0.0002978582691675007
422 354 -0.0010422202817234583
422 355 -0.0008661252819069324
422 356 -0.033599965913329033
422 357 -0.0018419359477123108
422 421 0.0083555233802003435
422 422 0.093536347999280456
423 4 -9.43796414863236e-05
423 5 9.437964148631742e-05
423 6 -0.0036488724749350705
423 34 0.0027679275262425911
423 35 0.0023404400346729794
423 36 -0.014918335935260993
423 154 0.0026319433022102697
423 155 0.0022545862925128883
423 156 -0.0038267541393363948
423 352 0.002143102556061247
423 353 -0.0013541488440145025
423 354 -0.00011372798652846557
423 355 -0.0015916557210686963
423 356 -0.0043375415624000019
423 357 -0.0068494830280618271
423 421 -0.0056316110988812815
423 422 0.0008885705470955867
423 423 0.066233163939209069
424 7 -0.014007366207651809
424 8 -0.012459236295013781
424 9 0.0014728804710473565
424 145 -0.0071050032696203472
424 146 0.0090893494348848938
424 147 -0.003697432974832346
424 148 -0.029498791394956717
424 149 0.013302116609357737
424 150 0.0053937015803319959
424 358 -0.00046664926930686367
424 359 -0.00098970036142054393
424 360 -0.00038126652063476393
424 361 -0.044411588735104243
424 362 -0.0001581507582120651
424 363 0.00077803982127294734
424 424 0.10848197556582703
425 7 -0.012459236295013779
425 8 -0.014224146863638097
425 9 0.0014728804710473647
425 145 0.0090893494348848955
425 146 -0.018095087749638163
425 147 0.0049392011028172216
425 148 0.013302116609357737
425 149 -0.015667011771846966
425 150 -0.0023532013197175277
425 358 -0.00098970036142054349
425 359 -0.010552140748642047
425 360 -0.0078958396491766551
425 361 -0.00015815075821206444
425 362 -0.010130177652399585
425 363 -0.0013070847289452544
425 424 -0.010195811766441451
425 425 0.09181627674614902
426 7 -0.00012968363151674559
426 8 -0.0001296836315167392
426 9 -0.0038217663190915257
426 145 -0.0023095717508188241
426 146 0.0025353549489710689
426 147 -0.0036221116250726229
426 148 0.002845511874501229
426 149 -0.0011191538765107892
426 150 -0.0083777954725352856
426 358 -0.00016656364208418421
426 359 -0.0054919934953305037
426 360 -0.0036524483387363688
426 361 0.003326229527103714
426 362 -0.00093856806958788914
426 363 -0.010465395902978835
426 424 -0.00040670112860346662
426 425 0.0020447630500112831
426 426 0.066060011782207509
427 1 -0.013945318842921585
427 2 -0.012438870733749132
427 3 -0.0014881546419958445
427 25 -0.028539875379274143
427 26 0.012053853793619364
427 27 -0.00015513086575697117
427 88 -0.030540664500641329
427 89 0.012144254880032141
427 90 -0.0010545192650700534
427 301 -0.01676716608618236
427 302 -0.0023857180708191654
427 303 -0.00081754743512466141
427 418 0.00030162459582403834
427 419 -0.0019458083784864124
427 420 -0.00094209018020379484
427 427 0.10076607891754921
428 1 -0.012438870733749129
428 2 -0.014017241208354403
428 3 -0.001488154641995851
428 25 0.012053853793619363
428 26 -0.031364215904400375
428 27 -0.0012551201765947113
428 88 0.012144254880032141
428 89 -0.027445164656616804
428 90 -0.00046427352152337426
428 301 -0.0023857180708191658
428 302 1.9196638722279681e-05
428 303 -0.00082064889777752549
428 418 -0.0019458083784864117
428 419 -0.016729867744699495
428 420 -0.0010568894435851117
428 427 -0.00738318565710646
428 428 0.10081469893922235
429 1 0.0001144094605682579
429 2 0.00011440946056825258
429 3 -0.0037479976579412088
429 25 0.0023601171725963844
429 26 -0.0025250046379384581
429 27 -0.014157198215564961
429 88 -0.0023897878381884648
429 89 0.0020313320931643125
429 90 -0.013394549295841321
429 301 -0.003332795473478018
429 302 -0.0011533285389978827
429 303 -0.00045556272832569691
429 418 -0.0012093857096494868
429 419 -0.0035524950582727982
429 420 -0.00047185797626465788
429 427 0.0045927577837321029
429 428 0.0052211480558002898
429 429 0.07090976917461396
430 10 -0.014284095162241345
430 11 0.012489209011412736
430 12 -0.0014504009337481373
430 31 -0.019477890015811381
430 32 -0.0090106133952073848
430 33 -0.0050313998582609803
430 91 -0.031298479199804205
430 92 -0.01191363765155877
430 93 -0.0012634448224173752
430 412 -0.015410405455417053
430 413 0.0022285837874104625
430 414 -0.00076018224643411951
430 415 -0.004593828992712495
430 416 0.00011966479731830492
430 417 0.0017754634915733952
430 430 0.096410338037007895
431 10 0.012489209011412736
431 11 -0.014365235661317878
431 12 0.0014504009337481401
431 31 -0.0090106133952073866
431 32 -0.0071478386518391678
431 33 -0.0035039590097021849
431 91 -0.011913637651558772
431 92 -0.027480660761827549
431 93 0.00020167373843261674
431 412 0.002228583787410462
431 413 0.00070219142671707315
431 414 0.00098766751280482141
431 415 0.00011966479731830471
431 416 -0.030731397852710937
431 417 0.0029879268391333038
431 430 0.0058681845937434887
431 431 0.089933296925700762
432 10 0.00015216316881596444
432 11 -0.00015216316881596205
432 12 -0.0039352209510089917
432 31 -0.002603382122573372
432 32 -0.0022051403705864734
432 33 -0.0040524519492759663
432 91 -0.0025987133955357846
432 92 -0.0022939318762550693
432 93 -0.013921700693690902
432 412 -0.0031881999821217278
432 413 0.0012914129762532124
432 414 6.6190337291122591e-05
432 415 0.0015081679621277017
432 416 0.0054835324538209914
432 417 -0.0059041018572615024
432 430 0.0072107341505465144
432 431 -0.0023534144063030453
432 432 0.065929007922028743
433 301 0.0027784323535373994
433 302 -0.0048168550869983114
433 303 -0.0024151114626120487
433 304 -0.0024526461904526395
433 305 0.0081420339685738252
433 306 0.0024994576974781699
433 409 -0.0020394994181550234
433 410 -0.0078648257608389949
433 411 -5.5471172892047112e-05
433 412 -0.0061159384504615756
433 413 0.0069171311245787102
433 414 0.0022904385937649358
433 415 -0.0093482813731828717
433 416 0.0060125766408633775
433 417 -0.0023838715790095865
433 418 -0.019226812944331446
433 419 -0.010563794966554012
433 420 0.0022585427638241559
433 433 0.093554389847158123
434 301 -0.0048168550869983123
434 302 -0.010597484596363255
434 303 -0.00074296794580390067
434 304 0.008142033968573827
434 305 -0.0072519459230497036
434 306 -0.0017471275937276777
434 409 -0.0078648257608389949
434 410 -0.0066753995282019096
434 411 0.0024557972862570441
434 412 0.0069171311245787102
434 413 -0.029274191279529696
434 414 -0.0067007385902797334
434 415 0.0060125766408633784
434 416 0.00050864283806359629
434 417 0.0028213873922732545
434 418 -0.010563794966554012
434 419 -0.011532773325601414
434 420 0.001326225232708025
434 433 0.0010462117734865396
434 434 0.093650774500127584
435 301 -0.0014726631946715403
435 302 0.0019706730509335929
435 303 0.0047300464079169102
435 304 0.00062959806546837626
435 305 0.00056495909927694351
435 306 0.0033638969044434098
435 409 -0.0019253308049018447
435 410 0.00014371059325242333
435 411 0.0044031169689434562
435 412 0.003145656559039694
435 413 -0.0093854454092452619
435 414 -0.0093424933720815707
435 415 0.00017586821977505843
435 416 0.0015956662389293144
435 417 0.003749180685140375
435 418 0.0049055128652745472
435 419 0.0025230122082800007
435 420 -0.0059760297282428852
435 433 0.00012696424986593331
435 434 -0.0008889505029140792
435 435 0.086521693005393974
436 349 -0.0072442077546789234
436 350 -0.0096878663639338846
436 351 0.0019255414952983286
436 352 0.0021798070541799702
436 353 0.00469106155845328
436 354 -0.00088710347724512903
436 355 -0.01640260804508448
436 356 0.0090750392503468578
436 357 -0.0020243981707938263
436 358 -0.0069545511191132659
436 359 -0.0036769267289547473
436 360 0.0066653833600739077
436 361 -0.0013625186296937263
436 362 -0.0062375911691439599
436 363 0.0009581263470880637
436 364 -0.0018426888385898129
436 365 0.0075257357399737806
436 366 -0.0038566349451812027
436 436 0.090309288242455973
437 349 -0.0096878663639338846
437 350 -0.019733582869245134
437 351 0.0022286284428519407
437 352 0.00469106155845328
437 353 -0.012743882936316672
437 354 0.001152040380417852
437 355 0.0090750392503468596
437 356 -0.0061215587664540001
437 357 0.00052457001526751948
437 358 -0.0036769267289547478
437 359 0.00018579713962087139
437 360 0.0028708695078151331
437 361 -0.0062375911691439599
437 362 -0.017010623788597825
437 363 0.0024174352951986354
437 364 0.0075257357399737806
437 365 -0.0063299194844268535
437 366 0.002737581202599244
437 436 -0.0040332308836293395
437 437 0.092024560474788603
438 349 0.003783038479520369
438 350 0.004468490868719646
438 351 -0.0043941289973007903
438 352 -0.00173501872755988
438 353 0.0038480638832278126
438 354 0.0018493196379327252
438 355 -0.0045511963021010599
438 356 0.0017861281867484707
438 357 -0.001712933716023316
438 358 0.0040641658429700573
438 359 0.0017576588942420407
438 360 0.0010948519523471605
438 361 2.6448041569624033e-05
438 362 -0.00031949302502435012
438 363 0.0011132025711598249
438 364 -0.002027005316278765
438 365 0.00040595931589000004
438 366 0.0037365961153279928
438 436 0.0055945422310395608
438 437 -0.0057760872344142494
438 438 0.090607070611268908
439 340 -0.0066869695708969747
439 341 -0.0099989644353501647
439 342 -0.0039546020451894492
439 343 -0.00095936517912725958
439 344 0.0071017457835427997
439 345 0.0048522559721454845
439 370 -0.010480341642489972
439 371 -0.0090249882931489264
439 372 0.0034918991394250775
439 373 -0.0084682414495076044
439 374 0.0096861514683302032
439 375 -0.0029101831959319306
439 439 0.10630139028087039
440 340 -0.0099989644353501647
440 341 -0.017946616591388846
440 342 -0.0078750903363109907
440 343 0.0071017457835427997
440 344 -0.0077740527786163156
440 345 -0.0028693739435062824
440 370 -0.0090249882931489247
440 371 -0.011987684659808075
440 372 0.0042555224674237901
440 373 0.0096861514683302032
440 374 -0.012903281048415829
440 375 0.0035540419267185925
440 439 -0.0054133640188024973
440 440 0.086104961686035111
441 340 -0.0023477718449631687
441 341 -0.0054851900156970192
441 342 -0.0049155121551486131
441 343 0.0032121029339591857
441 344 -0.00043616053495088502
441 345 0.0042609132768358614
441 370 0.0018506584732245692
441 371 0.0018245931621306834
441 372 -0.002888274941642345
441 373 -0.0012998101986434535
441 374 0.0011633632380499918
441 375 -0.0016755841147777018
441 439 0.011041719218918706
441 440 0.001932526095647669
441 441 0.094562392352416244
442 325 -0.0011118633387204278
442 326 -0.0072891389847125048
442 327 0.00046517083608307321
442 328 -0.0097129248442035365
442 329 0.0052321907442411855
442 330 0.00041489260393641914
442 385 -0.0008703767052808608
442 386 -0.0072038794145878014
442 387 -0.00045531756882626843
442 388 -0.005902718850452981
442 389 0.007084564270613272
442 390 0.000465395604959137
442 442 0.1009522185631289
443 325 -0.0072891389847125065
443 326 -0.0081922279197380321
443 327 -0.0019253396578445645
443 328 0.0052321907442411846
443 329 -0.030632871417656748
443 330 -0.0012492247660041305
443 385 -0.0072038794145878023
443 386 -0.0080388983697132887
443 387 0.0019474619610285486
443 388 0.0070845642706132712
443 389 -0.022305278295334529
443 390 -0.0025468744166586834
443 442 0.0084367773070076098
443 443 0.10271878301416763
444 325 0.0020910294599066435
444 326 0.00048218564497299959
444 327 0.0039722600702149589
444 328 -0.0011877013119947258
444 329 0.0011562294535929559
444 330 -0.0099672354772494601
444 385 -0.0020711337023075235
444 386 -0.00045853096958781516
444 387 0.0040999459571505279
444 388 0.0020534028951982061
444 389 -0.0049526385930936572
444 390 -0.0052578297252190093
444 442 -0.0066601399528989219
444 443 0.0025082666642209533
444 444 0.091259735081717058
445 307 -0.0046873857628229165
445 308 -0.0071611239732661544
445 309 0.00044234596482558506
445 310 7.6016840690003437e-05
445 311 0.0070818518174897722
445 312 -0.00043603709620024331
445 403 -0.0016255803612534518
445 404 -0.0075858841495370852
445 405 0.0020391874546635243
445 406 -0.0020991026548151685
445 407 0.0077153923365579063
445 408 -0.0020693572784283342
445 445 0.091224803495759538
446 307 -0.0071611239732661553
446 308 -0.019319985687136713
446 309 0.002930849626923933
446 310 0.0070818518174897722
446 311 -0.007298671661071069
446 312 -0.0020591514282933022
446 403 -0.007585884149537086
446 404 -0.0088396070085698733
446 405 0.00046829138991064481
446 406 0.0077153923365579063
446 407 -0.0092033428006871223
446 408 0.00049453401905402261
446 445 -0.00012732385244545213
446 446 0.078057804544265003
447 307 0.0020525074067238476
447 308 0.0053402590508614921
447 309 -0.0038073527205846162
447 310 -0.0020237657062291249
447 311 0.0003497494671354988
447 312 0.0046460943401001658
447 403 0.0004214038764102407
447 404 -0.0019641264528750691
447 405 0.0035060222081639771
447 406 -0.00042615306598830626
447 407 -0.0019055270421072768
447 408 0.0031514804523103202
447 445 1.9129529684131178e-05
447 446 0.00071729782176595876
447 447 0.080474334932362404
448 310 -0.001699168376181453
448 311 -0.0076149845683541363
448 312 0.00040851282176758603
448 313 -0.0087000566868393244
448 314 0.0062892398793763828
448 315 0.00055910777164460031
448 400 -0.00031719596503626654
448 401 -0.007143535789970009
448 402 -0.00031817028382460813
448 403 -0.0082579033270649312
448 404 0.0046571708497165389
448 405 -0.00048570662446863417
448 445 -0.030006409323072997
448 446 -0.0035166611195522582
448 447 -0.0071792748053656165
448 448 0.10110574282354165
449 310 -0.0076149845683541363
449 311 -0.008552394551823583
449 312 -0.0020491661202706635
449 313 0.0062892398793763819
449 314 -0.027639108716358721
449 315 0.0003769627482526211
449 400 -0.007143535789970009
449 401 -0.0080020690788158745
449 402 0.0020941907921421649
449 403 0.0046571708497165397
449 404 -0.027670827311556779
449 405 0.0018881630587293812
449 445 -0.0035166611195522578
449 446 -0.005788457169824816
449 447 -0.0013094498982008389
449 448 0.011867170480126796
449 449 0.10642182116077932
450 310 0.0021361756488795921
450 311 0.00039641107519108594
450 312 0.0038876709556450802
450 313 -0.0011372004412153951
450 314 0.002763658706370489
450 315 -0.0085673655253498265
450 400 -0.0018752277253029034
450 401 -0.00030185352875196304
450 402 0.0040539980989829222
450 403 0.0010705676912974433
450 404 -0.0005508772329868533
450 405 -0.0086522692111088394
450 445 -0.0039259091510273261
450 446 -0.0013001015354245798
450 447 -0.0067043787933986814
450 448 -0.001004349792461645
450 449 -0.0019577458352940834
450 450 0.098540225717686947
451 331 -0.0019894425054679896
451 332 -0.0081104347295767962
451 333 0.00034157955742160568
451 334 -0.0055247537594838017
451 335 0.0073593355712128859
451 336 0.00019067423927597181
451 379 -0.00086833231539699821
451 380 -0.0072138376180287487
451 381 -0.00047412607089949987
451 382 -0.005167190195190411
451 383 0.007185892877556898
451 384 0.00047117594183828277
451 451 0.087160446244383433
452 331 -0.008110434729576798
452 332 -0.0099368413118935614
452 333 0.0014607034598085149
452 334 0.0073593355712128859
452 335 -0.021087486602427766
452 336 -0.00059951173301454278
452 379 -0.0072138376180287504
452 380 -0.0083301691182209123
452 381 0.0019737329812255138
452 382 0.0071858928775568988
452 383 -0.019580492391363946
452 384 -0.0033321457660160682
452 451 0.0059314037517127962
452 452 0.087276357454186784
453 331 0.0019518364257083021
453 332 0.0038700766053991597
453 333 0.0015083326514116124
453 334 -0.0014139645680428378
453 335 0.0018444800235283968
453 336 -0.0034573718059279072
453 379 -0.0020848426166790446
453 380 -0.00047134014971102482
453 381 0.0040878711132301968
453 382 0.0020756829149295285
453 383 -0.0057420666283431766
453 384 -0.0041504301160708241
453 451 -0.0082320182942072339
453 452 0.00098348123356432806
453 453 0.083035942049342712
454 334 -0.0011543733846792442
454 335 -0.0072629704765670624
454 336 -0.00015702579810850993
454 337 -0.0056961821172428137
454 338 0.0065061112995741157
454 339 0.00059158813683976141
454 376 -0.0052100193134157497
454 377 -0.0071126439589066278
454 378 -0.00041863465957144523
454 379 -0.00097163495425420915
454 380 0.0073107180385461306
454 381 0.00045432144385693638
454 451 -0.025954083379976071
454 452 -0.0027936628338286183
454 453 0.0024930844432389551
454 454 0.090302596252307771
455 334 -0.0072629704765670607
455 335 -0.0081371127351499949
455 336 0.00053596833972668662
455 337 0.0065061112995741148
455 338 -0.021403423990209291
455 339 -0.0020145904277608841
455 376 -0.0071126439589066278
455 377 -0.019739802573757813
455 378 -0.003371320568308384
455 379 0.0073107180385461323
455 380 -0.0077869667052143385
455 381 0.0019764183856704537
455 451 -0.0027936628338286183
455 452 -0.0039706902969311236
455 453 0.00064062628103634528
455 454 0.0072002363025023969
455 455 0.088969608859960997
456 334 0.0014519550847989495
456 335 0.0029248609243026119
456 336 0.003082313186419793
456 337 -0.0010186687314469361
456 338 0.00038372873434077423
456 339 -0.0040495770342163558
456 376 -0.00202314163266269
456 377 -0.0057690920136735796
456 378 -0.0042855760551696806
456 379 0.0020956777223565671
456 380 -0.00041439563782122435
456 381 0.0041676967248717549
456 451 0.0057078482846168984
456 452 0.00064007856429988208
456 453 -0.0042891378098426618
456 454 -0.010348434019088944
456 455 0.0013508554943492397
456 456 0.087149715556465376
457 316 -0.0060519748943369273
457 317 -0.0087413658932682207
457 318 -0.0017534127151521799
457 319 -0.0018369739222403448
457 320 0.007716111240073693
457 321 0.0018733800287399341
457 394 -0.0090896482369842192
457 395 -0.010109539842334519
457 396 0.0020250178438973214
457 397 -0.0080902207257777196
457 398 0.0091272836504444413
457 399 -0.0027866294008310573
457 457 0.10371606967038928
458 316 -0.0087413658932682225
458 317 -0.020854403921105616
458 318 -0.0044066535953782675
458 319 0.0077161112400736939
458 320 -0.0088508268889946444
458 321 -0.00083780095206032195
458 394 -0.010109539842334519
458 395 -0.013381499655826769
458 396 0.003665794226057199
458 397 0.009127283650444443
458 398 -0.011692077476779413
458 399 0.0035493580427899628
458 457 -0.0065101570081643146
458 458 0.09041143590726769
459 316 -8.4358958919005406e-05
459 317 -0.0019888533629312875
459 318 -0.0037130681290666557
459 319 0.00019075313141192463
459 320 0.0015742390234117682
459 321 0.0032042718028594116
459 394 0.00050572226729712596
459 395 0.0012408764745468876
459 396 -0.0024631478665437423
459 397 -0.0011937605457609771
459 398 0.001175511456343468
459 399 -0.0013507108834449847
459 457 0.0080849290828411552
459 458 -0.0015684687282624499
459 459 0.087605100365573382
460 319 -0.005053289335808335
460 320 -0.0080547158216897827
460 321 -0.0022702196633320477
460 322 -0.0011386083671553438
460 323 0.008607398377549761
460 324 0.0024637975309218779
460 391 -0.0012877345347838468
460 392 -0.0069829513171303682
460 393 0.00028902643965907559
460 394 -0.0067554761534072017
460 395 0.0086958110718459852
460 396 0.00084523671663125843
460 457 -0.033207817371144775
460 458 0.0032539149766940357
460 459 -0.0063349843770775759
460 460 0.10028588795080301
461 319 -0.0080547158216897827
461 320 -0.020778851161555929
461 321 -0.0053972418843842105
461 322 0.008607398377549761
461 323 -0.010055500482492714
461 324 -0.0007503049564495936
461 391 -0.0069829513171303682
461 392 -0.0079746350308810311
461 393 0.0032932846094984548
461 394 0.008695811071845987
461 395 -0.022677691101426652
461 396 -0.0035862296923230719
461 457 0.0032539149766940361
461 458 -0.0060668019452357847
461 459 0.00083169962988474525
461 460 -0.0061669585175625208
461 461 0.092723269718470683
462 319 -0.00068076423805930202
462 320 -0.0029956564190043861
462 321 -0.0043135741607982165
462 322 0.00086033908214757314
462 323 0.0016482203866597651
462 324 0.0026815332747499574
462 391 -0.0013694377228698742
462 392 0.00085080562038861076
462 393 0.0042368977562446848
462 394 0.002506648840070977
462 395 -0.00598002105907312
462 396 -0.0056517436614477072
462 457 -0.0030730617657743209
462 458 0.00087565327588523024
462 459 -0.0071567191052382762
462 460 0.0098179390924754417
462 461 0.0062008900587513897
462 462 0.084527974667842495
463 304 -0.0093012574333173181
463 305 -0.0043167889190500776
463 306 -0.00090153274041486356
463 307 -0.0020075060510242786
463 308 0.0077996535151705895
463 309 -0.00027025074877058209
463 406 -0.0089734525066418776
463 407 -0.0042583292137813944
463 408 0.00039198656368817078
463 409 -0.0010971832606121413
463 410 0.0074987419204311078
463 411 0.00050939777133986869
463 433 -0.026774582380037434
463 434 0.0023591112259120197
463 435 -0.0050218657592504979
463 445 -0.031812754674010228
463 446 0.0034692766639782659
463 447 0.0073498900659885388
463 463 0.10164797788415261
464 304 -0.0043167889190500785
464 305 -0.029232021575448568
464 306 -0.001631110683789625
464 307 0.0077996535151705895
464 308 -0.0086050616765251595
464 309 -0.0020521924654197912
464 406 -0.0042583292137813936
464 407 -0.028972060420398973
464 408 0.0013151226376293956
464 409 0.0074987419204311061
464 410 -0.0093208864798790605
464 411 0.0021912077138249541
464 433 0.0023591112259120197
464 434 -0.0024579094463745045
464 435 0.00098955809120199406
464 445 0.0034692766639782655
464 446 -0.0064937092964948376
464 447 -0.0012830910280085637
464 463 -0.012794596260353041
464 464 0.10688824092139906
465 304 0.00068619586961401677
465 305 0.00098058384944784121
465 306 -0.0090761669910747467
465 307 -0.0020047008521455224
465 308 0.00033381561351432387
465 309 0.0034845781371242533
465 406 -0.0011382202023676028
465 407 -0.0010708854413047193
465 408 -0.0097160083110021059
465 409 0.0021271813495931536
465 410 -0.00039696987205559879
465 411 0.0040079069462854722
465 433 -0.0017572088898197861
465 434 0.0009895580912019945
465 435 -0.0031850085254488572
465 445 0.004144377877706374
465 446 -0.0013066079753654759
465 447 -0.0075862513584090243
465 463 -0.0014550095669674465
465 464 0.00080539328113541102
465 465 0.097391521749145366
466 343 -0.012848658539577808
466 344 -0.0022291699426777462
466 345 -0.0020630378367750492
466 346 -0.0018784687462230503
466 347 0.0083221744749614329
466 348 0.00067966574966337248
466 367 -0.0060291139981922762
466 368 -0.0061982518686647184
466 369 0.00030597048295203082
466 370 -0.00083843846495247273
466 371 0.0072051900569902365
466 372 0.00054602506737730675
466 439 -0.030807305380815012
466 440 0.0038182870278957214
466 441 -0.0072750398554154352
466 466 0.099119346054262578
467 343 -0.0022291699426777471
467 344 -0.03152109740898118
467 345 -0.0067945585332406088
467 346 0.0083221744749614329
467 347 -0.010822842417800951
467 348 -0.0011579386050504616
467 367 -0.0061982518686647193
467 368 -0.021738525488369596
467 369 -0.0020200383698266463
467 370 0.0072051900569902374
467 371 -0.008158316613698393
467 372 0.0019553693860716505
467 439 0.003818287027895721
467 440 -0.0057122356917920095
467 441 0.0019277407267291244
467 466 -0.01179650065161651
467 467 0.10147063190933507
468 343 -0.00045548696366912948
468 344 -0.0043394522184529872
468 345 -0.014010765901444625
468 346 -0.00091480180277515389
468 347 0.0013320776491647876
468 348 0.0019817269678140156
468 367 -0.0013167651621242005
468 368 -0.0045092762559872657
468 369 -0.005101812138567305
468 370 0.0021492524658849365
468 371 -0.00050260401494127362
468 372 0.004241893490975028
468 439 -0.0040578366579006779
468 440 0.0019269623586744956
468 441 -0.0065557461187542411
468 466 0.0055242842189625781
468 467 0.0094253028171769875
468 468 0.096921614999566377
469 346 -0.0084594902834007907
469 347 -0.0061493769667194872
469 348 1.8200625532811864e-05
469 349 -0.0024838814414936397
469 350 0.0085809494267989513
469 351 -0.0014803162607222203
469 364 -0.0085030198839810018
469 365 -0.0035294510765103062
469 366 0.0011801333451846134
469 367 2.7912022445331397e-05
469 368 0.0058853448653754144
469 369 -0.00023021529650184649
469 436 -0.029100153978068276
469 437 0.0042998513259059311
469 438 0.0016150809288766261
469 466 -0.02663218389918634
469 467 0.0039776116202506189
469 468 -0.0010041708511139846
469 469 0.1005224163443217
470 346 -0.0061493769667194855
470 347 -0.026544393273558928
470 348 0.0016536939724734793
470 349 0.0085809494267989495
470 350 -0.013211460870475041
470 351 0.00082356822827233224
470 364 -0.0035294510765103062
470 365 -0.023993617427683567
470 366 0.00509597177714199
470 367 0.0058853448653754144
470 368 -0.005808641855838916
470 369 0.00029097707785189116
470 436 0.0042998513259059311
470 437 -0.0047099020658019726
470 438 -0.00010046887192469568
470 466 0.0039776116202506189
470 467 -0.0050759426882709697
470 468 0.00080529463292826602
470 469 -0.015421954562756517
470 470 0.10734167460176509
471 346 0.0016513600773073694
471 347 0.0040582881673194406
471 348 -0.007262636094785415
471 349 -0.0030583446585463908
471 350 0.0035178091030262041
471 351 0.00087176325508644601
471 364 -0.0004526165286047627
471 365 0.0024045979886134208
471 366 -0.0076530488140025927
471 367 0.0013571078428433938
471 368 -0.0021293003966473658
471 369 0.005367933261000434
471 436 -0.0016054016622431715
471 437 -8.4785592271399387e-05
471 438 -0.005132000094052503
471 466 0.0022066074204995633
471 467 0.00080242754670296294
471 468 -0.0044317050111870575
471 469 -0.0040506141221496516
471 470 -0.0001634010848499054
471 471 0.096947928723211063
472 322 -0.010385953039931797
472 323 -0.0053470178586666577
472 324 -0.00076314723212953797
472 325 -0.00062607622580374586
472 326 0.0071247928223731622
472 327 -0.00047848598526581713
472 388 -0.0058710941816284357
472 389 -0.0081997383172331198
472 390 -0.00034208178094226229
472 391 -4.5117545201010269e-05
472 392 0.0065561848546569247
472 393 -0.00019218073332656063
472 442 -0.027821767083316018
472 443 0.00037594116280359837
472 444 0.0020601482918743384
472 460 -0.032783222287470937
472 461 0.004242932107165546
472 462 -0.0062782883992433779
472 472 0.10229125355557249
473 322 -0.0053470178586666594
473 323 -0.030642071343410487
473 324 -0.0017954034287724959
473 325 0.0071247928223731622
473 326 -0.0079968844952545241
473 327 -0.0019601478632379583
473 388 -0.0081997383172331198
473 389 -0.021076954329936781
473 390 -0.001251218321272649
473 391 0.0065561848546569247
473 392 -0.0072245529270788793
473 393 0.0019588676452162381
473 442 0.0003759411628035987
473 443 -0.0018351309398864878
473 444 -0.00053057434924054178
473 460 0.004242932107165546
473 461 -0.0065271214651953418
473 462 0.0016926241491518077
473 472 -0.0079176534111481661
473 473 0.10306657503921003
474 322 0.00092904089921948686
474 323 0.00060324212843124603
474 324 -0.010488021719817405
474 325 -0.0020597593321890224
474 326 0.00044740114748593335
474 327 0.0041519373635778706
474 388 -0.0020116759827315213
474 389 -0.0036665614306263181
474 390 -0.0040169738179307354
474 391 0.0013340411847368131
474 392 -0.00043923920096822504
474 393 0.0043955773414857896
474 442 -0.0011582617575380608
474 443 -0.00053111306025981964
474 444 -0.0027569547036565404
474 460 -0.0030274208505309142
474 461 0.001700418247781586
474 462 -0.0072541867818802144
474 472 0.0051769166926378301
474 473 0.0028584120664373923
474 474 0.093204494492109158
475 313 -0.00042142897628443481
475 314 -0.0075454652034342932
475 315 -0.0011740331944112697
475 316 -0.00088640039690999215
475 317 0.0076934515199833554
475 318 0.0011758078506885902
475 397 -0.0066462264750181358
475 398 -0.0078807033853020569
475 399 -0.00052723115131379913
475 400 -0.0013358637404879592
475 401 0.0074529752891037901
475 402 0.00038060030250889601
475 448 -0.030376670705956017
475 449 -0.0040100650129182144
475 450 0.0040833629493226753
475 457 -0.028754160609682673
475 458 0.0035870747938556123
475 459 -0.003486875096432464
475 475 0.088861026299370038
476 313 -0.0075454652034342914
476 314 -0.0084834366050846322
476 315 0.00065305703375631151
476 316 0.0076934515199833528
476 317 -0.0086263890246563463
476 318 0.00031398419623159088
476 397 -0.0078807033853020569
476 398 -0.021346524468093958
476 399 -0.0033577982398291352
476 400 0.0074529752891037901
476 401 -0.0085747939176106167
476 402 0.0020172929737934629
476 448 -0.0040100650129182161
476 449 -0.0065033889188925165
476 450 0.0013178220049855779
476 457 0.0035870747938556127
476 458 -0.0053665631927970539
476 459 0.0012151297309863386
476 475 0.00073080674525608956
476 476 0.078843464725179446
477 313 0.00041899948749885918
477 314 0.0030523018968680103
477 315 0.0034496847132228893
477 316 -0.0004497333077638319
477 317 0.0027168221817032039
477 318 0.0032854486482002095
477 397 -0.0021856271357394595
477 398 -0.0057671731290462628
477 399 -0.0050343757633437413
477 400 0.0019894900945269718
477 401 -0.00036907411328001519
477 402 0.0035759604404221545
477 448 0.0073673000922007559
477 449 0.0013243589087310933
477 450 -0.0073657723599573569
477 457 -0.00668879757036067
477 458 0.0012022519549481176
477 459 -0.0062390551874946104
477 475 -0.00039668896497384136
477 476 -0.00099049197457656921
477 477 0.080095458498842073
478 328 -0.0018801275452613349
478 329 -0.0087843408862240992
478 330 -0.0020165061553105005
478 331 -0.0058658294293907551
478 332 0.010435536659916129
478 333 0.0011142158504425202
478 382 -0.0010708906750507123
478 383 -0.0072866135418957461
478 384 -0.0004690621318694816
478 385 -0.0053733259876590864
478 386 0.0072025982277659408
478 387 0.00045601195297103101
478 442 -0.031817449243462179
478 443 -0.0036283341183565004
478 444 0.0037595598661378312
478 451 -0.027374576945535072
478 452 -0.0031496756680541769
478 453 0.0063427796407276296
478 478 0.093723798695450333
479 328 -0.0087843408862240992
479 329 -0.01067937195911741
479 330 -0.000415715149474515
479 331 0.010435536659916133
479 332 -0.020973197714477421
479 333 -0.0034253506791610093
479 382 -0.0072866135418957461
479 383 -0.0082405179988317839
479 384 0.0019516567268579024
479 385 0.0072025982277659399
479 386 -0.019769569844982085
479 387 -0.0033985110474435095
479 442 -0.0036283341183565004
479 443 -0.0056874606510488061
479 444 0.0016716500489889572
479 451 -0.0031496756680541777
479 452 -0.004844596265380802
479 453 0.00095861713059632709
479 478 0.0046193292743054856
479 479 0.090474516161934082
480 328 -0.00041353643042303179
480 329 0.001988780424703681
480 330 0.0021488569696265078
480 331 -0.00047116152168844472
480 332 -0.0010040898097591312
480 333 -0.0028960410165845322
480 382 -0.0020975506738011547
480 383 -0.00047136526892656544
480 384 0.0040217672495493333
480 385 0.0020683975811819147
480 386 -0.0058019252472281072
480 387 -0.0043148218172600278
480 442 0.0069734257802004703
480 443 0.0016734111753715472
480 444 -0.0068878191235039448
480 451 0.0031274242876292773
480 452 0.00095753575620272861
480 453 -0.0053556393067522873
480 478 -0.0086470179175817379
480 479 0.0069102125370020346
480 480 0.083194049467841896
481 337 -0.0011414259866217042
481 338 -0.0075264122626312662
481 339 -0.0010209327211278948
481 340 -0.0010576095984626832
481 341 0.0074961432971455792
481 342 0.0010101708355085169
481 373 -0.00069794360898746226
481 374 -0.007247956678471161
481 375 -0.00040735799869721988
481 376 -0.0052756481010065885
481 377 0.0074504212590756737
481 378 0.00047193066252768827
481 439 -0.030557848042742863
481 440 0.0037476604556618003
481 441 -0.0040580253520861283
481 454 -0.029771569771356837
481 455 -0.003563018532416059
481 456 0.0037610835417235828
481 481 0.089201949495651453
482 337 -0.0075264122626312662
482 338 -0.0082902392376220796
482 339 0.00054442885518030961
482 340 0.0074961432971455801
482 341 -0.0082820259997457985
482 342 0.00069750827762752232
482 373 -0.007247956678471161
482 374 -0.0077412941552452205
482 375 0.0019445092666443978
482 376 0.0074504212590756746
482 377 -0.019038999603007926
482 378 -0.0031959872543042881
482 439 0.0037476604556618003
482 440 -0.0066418459357522885
482 441 0.0011576976980215616
482 454 -0.0035630185324160599
482 455 -0.0061391330901076867
482 456 0.0011139129814781599
482 481 -0.0004177718078354699
482 482 0.076547471745195411
483 337 0.00061141365566956345
483 338 0.0028956737352044118
483 339 0.0032412360764065323
483 340 -0.00061909213435788952
483 341 0.0030510219615944504
483 342 0.0032740464711048254
483 373 -0.0020284321902379046
483 374 -0.00040708297840677857
483 375 0.0040619899379109826
483 376 0.0021209779901170361
483 377 -0.0055495162375906806
483 378 -0.0039873115278538512
483 439 -0.0073394190564729346
483 440 0.0011599818012838527
483 441 -0.0073777847488114261
483 454 0.0070114207031306743
483 455 0.0011119915425624064
483 456 -0.0068287202455246682
483 481 0.00013609776231202769
483 482 -0.0016423466130850166
483 483 0.080335961389576563
484 217 -0.017778701349414366
484 218 -0.012708905281193866
484 219 0.00092313236038066954
484 220 -0.013154491650180403
484 221 0.012020483249472923
484 222 0.00096659018439897875
484 484 0.1056675299659494
485 217 -0.012708905281193868
485 218 -0.019510857149187499
485 219 0.0021201954063443844
485 220 0.012020483249472922
485 221 -0.016951612787436378
485 222 -0.00023862864717491983
485 484 0.00076421451303678605
485 485 0.081385987729938575
486 217 -0.0006496674100321785
486 218 -0.00026076594917275259
486 219 -0.0063704780159261334
486 220 0.0020638215864434433
486 221 -0.0023650540907309433
486 222 -0.0054652930590733707
486 484 -7.8619809867750567e-05
486 485 -0.0015240768883161694
486 486 0.07443946360757632
487 214 -0.0086434490955041628
487 215 -0.010668458936935294
487 216 0.0029197667959662138
487 217 -0.010644503916912804
487 218 0.011439217997181381
487 219 -0.0011975049447386808
487 484 -0.031315879589147499
487 485 0.0047066140504507499
487 486 -0.0043992542771109939
487 487 0.10851383091800693
488 214 -0.010668458936935294
488 215 -0.014245029268393434
488 216 0.0029889104962687245
488 217 0.011439217997181381
488 218 -0.01622378100570579
488 219 0.0016045081378875112
488 484 0.0047066140504507508
488 485 -0.0054474736277672509
488 486 0.0016893760670192103
488 487 -0.0065176274179710031
488 488 0.087313685697787038
489 214 0.0013023672008668898
489 215 0.00059011908400521842
489 216 -0.0019128312887394545
489 217 0.00013776362837973025
489 218 -0.00070757855511710999
489 219 -0.0035271483022766342
489 484 -0.00119412607198279
489 485 0.0014764729460452501
489 486 -0.0052341849975368025
489 487 0.0080986393739270312
489 488 -0.0012660809721650522
489 489 0.086096179908566411
490 211 -0.0092710978033247772
490 212 -0.012430440957422559
490 213 0.0029243272241272263
490 214 -0.0079303256095426562
490 215 0.01053563104221162
490 216 -0.0029214203526678633
490 487 -0.029296919691600826
490 488 0.0025949341459340718
490 489 -0.0052710584038786609
490 490 0.11036477352503608
491 211 -0.012430440957422559
491 212 -0.018115056789624724
491 213 0.004543556431515358
491 214 0.010535631042211618
491 215 -0.014499560019665066
491 216 0.0029325982304108404
491 487 0.0025949341459340727
491 488 -0.0039410120761936163
491 489 0.0011577719078597038
491 490 -0.0073805951313341122
491 491 0.097349764133276312
492 211 0.0013293604608972842
492 212 0.0021341470075777981
492 213 -0.0036786316146712999
492 214 -0.0013486205822550155
492 215 0.00050586727823567312
492 216 -0.0016987470367878831
492 487 -0.0020659301987504576
492 488 0.0011577719078597034
492 489 -0.0044629662015439175
492 490 0.00079618862180072568
492 491 -0.0049481938309742755
492 492 0.091911536944120353
493 208 -0.014738577896306995
493 209 -0.012961428848598411
493 210 0.00077081368619808248
493 211 -0.01135794693087957
493 212 0.011559123590443915
493 213 -0.0018864461346368047
493 490 -0.03295723268761043
493 491 0.0040331965595893525
493 492 -0.0021990201220801089
493 493 0.10646397560798075
494 208 -0.012961428848598411
494 209 -0.017921724943209878
494 210 0.0016520348179862581
494 211 0.011559123590443915
494 212 -0.015396466566781194
494 213 0.0019669693971164975
494 490 0.0040331965595893533
494 491 -0.005983859963250804
494 492 -6.9184618429789428e-05
494 493 -0.0057686865090727443
494 494 0.091497721929859915
495 208 -0.00080877336047769993
495 209 -0.00075281950423444028
495 210 -0.0048516594906389985
495 211 -0.00026904653953748056
495 212 -0.00044193149831230441
495 213 -0.0030114996562939805
495 490 0.0011082297517076788
495 491 -0.00010990749167084284
495 492 -0.0060220283684371146
495 493 0.0035989383825396474
495 494 -0.0069612798537661419
495 495 0.081966253529772576
496 205 -0.0083389609632211342
496 206 -0.008094248580900805
496 207 0.0049186720310065999
496 208 -0.016101446392788134
496 209 0.012574129178203629
496 210 -0.00026698325502660778
496 493 -0.022050773335027009
496 494 -4.3152381386504812e-05
496 495 -0.00068558673018900666
496 496 0.1154636280848764
497 205 -0.008094248580900805
497 206 -0.024373462680381278
497 207 0.011244858879785479
497 208 0.012574129178203629
497 209 -0.017418356559865809
497 210 0.00095513987208280097
497 493 -4.3152381386503836e-05
497 494 0.00046832719131876188
497 495 1.8084491010569685e-05
497 496 -0.0057761333690331089
497 497 0.1008691533883835
498 205 0.0033065765077885238
498 206 0.0088456140166737821
498 207 -0.012245621579237757
498 208 0.0013279835082033343
498 209 -0.0014431430116719469
498 210 -0.0053360513951298963
498 493 0.0025195414749391992
498 494 1.8084491010569251e-05
498 495 -0.00050205379098694556
498 496 -0.015917113799927884
498 497 -0.011586367758973171
498 498 0.092000600203137731
499 202 -0.0066749514927077567
499 203 -0.010185991700693984
499 204 0.0037866871494276798
499 205 -0.0013877313499745835
499 206 0.0079310251947366586
499 207 -0.0048194852694057565
499 496 -0.04337889530693579
499 497 0.0052062797933688561
499 498 0.0049899768106291013
499 499 0.11070294771512376
500 202 -0.010185991700693984
500 203 -0.01575534269226412
500 204 0.0049638845506705673
500 205 0.0079310251947366604
500 206 -0.0095729065706953772
500 207 0.0032430013590465144
500 496 0.0052062797933688561
500 497 -0.0090462544518716825
500 498 -0.0019524674744918968
500 499 -0.0015403537002746897
500 500 0.092824591850324392
501 202 0.0021644659295709163
501 203 0.0025576712438604675
501 204 -0.0022057858628253173
501 205 -0.0032398982227299744
501 206 0.00084016337357490387
501 207 0.0024401500726472444
501 496 0.0082812517867190405
501 497 -0.0019640544001287776
501 498 -0.01101610409612346
501 499 -0.0053054303044671189
501 500 -0.0023418943108930263
501 501 0.081220496677795517
502 199 -0.00079602040609944827
502 200 -0.0056395204222003609
502 201 -0.00075069242039976477
502 202 -0.00023631008128387123
502 203 0.0056332339323363449
502 204 0.00075898994613150328
502 499 -0.026348230861932678
502 500 0.0025188887212587653
502 501 0.0037976787585965112
502 502 0.09157727611651767
503 199 -0.00563952042220036
503 200 -0.006407606181185457
503 201 -0.0035724588057348154
503 202 0.0056332339323363432
503 203 -0.0058707832393210917
503 204 -0.0011378643332839466
503 499 0.0025188887212587653
503 500 -0.0031870782996372645
503 501 0.0006894240204406739
503 502 0.0040343594695176378
503 503 0.09162723520843806
504 199 -0.0023663652002552226
504 200 -0.0059740442711146407
504 201 0.0026984033161419202
504 202 0.0023710854693495798
504 203 -0.003546311777864557
504 204 0.004612472710664086
504 499 0.0070028069637247158
504 500 0.00068942402044067379
504 501 -0.0043767213695681383
504 502 0.0036424667142244396
504 503 0.018512771462259509
504 504 0.098389622474854777
505 196 -0.020138788496460697
505 197 -0.011981872651430373
505 198 -0.0011153743479832309
505 199 -0.0072789872010916145
505 200 0.010418468375515005
505 201 -0.0040388957118970802
505 502 -0.029643801137867243
505 503 -0.0055074440557236265
505 504 -0.0096273050708805038
505 505 0.11191635064397192
506 196 -0.011981872651430373
506 197 -0.017422540435273297
506 198 -0.00054757135929795907
506 199 0.010418468375515001
506 200 -0.019149618219292057
506 201 0.0072780210863140713
506 502 -0.0055074440557236273
506 503 -0.011136696479614201
506 504 -0.0015701358758509528
506 505 0.0024362434098973039
506 506 0.096220002360296292
507 196 -0.002717908637180291
507 197 -0.0029498094473931788
507 198 -0.0078902997370966042
507 199 -0.0024166744920403171
507 200 0.0048765420854318675
507 201 -0.0042622343442573901
507 502 -0.0063325826503344155
507 503 -0.0015665433449594734
507 504 -0.012105962491318512
507 505 0.014641297411186546
507 506 -0.0053689056435066614
507 507 0.086302106028833342
508 193 -0.0067705728454263963
508 194 -0.0094674898545809606
508 195 -0.00055531541562545334
508 196 -0.013608689437832088
508 197 0.011739577064104409
508 198 0.0038674291830571414
508 505 -0.01694524386332398
508 506 -1.6139465559412937e-05
508 507 -0.0015975922513220785
508 508 0.10907953600773854
509 193 -0.0094674898545809606
509 194 -0.025333108315070716
509 195 -0.0008408938057428649
509 196 0.011739577064104409
509 197 -0.016367068545875413
509 198 -0.0029843049282500473
509 505 -1.6139465559413045e-05
509 506 0.001207030227259152
509 507 0.0013702159928898798
509 508 0.00324364138574928
509 509 0.10637029488634665
510 193 -0.0021551364604329507
510 194 -0.0032454654507875829
510 195 -0.0052215577385538291
510 196 0.0054831019629125993
510 197 -0.0053904117705625299
510 198 -0.00619228127307181
510 505 0.0016280874173089897
510 506 0.0013672623351170361
510 507 0.0025995934383648755
510 508 -0.017146884480766466
510 509 0.00025442322624226119
510 510 0.09075759004275874
511 190 -0.010463003063585845
511 191 -0.012762678316813787
511 192 0.002508995942782674
511 193 -0.012840537356069208
511 194 0.0114793459951649
511 195 -0.0012910919200568689
511 508 -0.037479755867113509
511 509 -0.0024076242419501103
511 510 0.0074370468507262543
511 511 0.11525452275042254
512 190 -0.012762678316813783
512 191 -0.018406669883065652
512 192 0.0040777923117215299
512 193 0.0114793459951649
512 194 -0.015554056998982824
512 195 0.0014335857164755874
512 508 -0.0024076242419501111
512 509 -0.005655316911182956
512 510 0.0011950181096264632
512 511 -0.0025215002773180482
512 512 0.090088989423183163
513 190 0.0009150195408914783
513 191 0.0016718545691319243
513 192 -0.0038045012615076776
513 193 0.00031144236914019182
513 194 -0.0009718685031214981
513 195 -0.0035475422685716214
513 508 0.010633992977504917
513 509 0.0011964602780378713
513 510 -0.010240432133038619
513 511 -0.0066916989156046627
513 512 -0.0059808947375969814
513 513 0.08122195095330971
514 187 0.0014868532143602013
514 188 -0.0042551113034335333
514 189 0.00041320523213838928
514 190 -0.018489777827571122
514 191 0.0067355408915979742
514 192 0.0035244559000531901
514 511 -0.036469565743419467
514 512 0.0064277943323852874
514 513 -0.0037510666784137201
514 514 0.11792080685069674
515 187 -0.0042551113034335333
515 188 -0.002807336418829198
515 189 0.003809996860615208
515 190 0.0067355408915979751
515 191 -0.025748514579386796
515 192 0.0014503083468281881
515 511 0.0064277943323852874
515 512 -0.010965199875907996
515 513 0.00065535235784409626
515 514 -0.0071363267513396868
515 515 0.11066580715331409
516 187 -0.0011816661047031182
516 188 0.0014006237150245603
516 189 0.0095112171471325932
516 190 0.0051242769448606885
516 191 -0.00095281231581940268
516 192 -0.013978435563110892
516 511 -0.0005459384732855151
516 512 0.0006553523578440981
516 513 -0.0097125091285508065
516 514 0.0055556112530969603
516 515 -0.002583099377002517
516 516 0.1010277539164367
517 184 -0.0031003650574734872
517 185 -0.0053290480205695724
517 186 -0.00054733839318363677
517 187 0.001368221609337439
517 188 0.0042527236200292674
517 189 -0.00041297336904363535
517 514 -0.019581537051379563
517 515 0.00079500618044884815
517 516 -0.00028123317506792368
517 517 0.083242828070780178
518 184 -0.0053290480205695732
518 185 -0.014236463128461899
518 186 -0.00041299798554237353
518 187 0.0042527236200292692
518 188 -0.0028888589398263021
518 189 0.001837841153828224
518 514 0.0007950061804488475
518 515 -0.00034516472474345841
518 516 0.00070468641325082803
518 517 -0.0036890457173054465
518 518 0.084440867027165689
519 184 -0.0021235559272146411
519 185 -0.0028200307768725874
519 186 -0.00086141683301355467
519 187 0.0011810030328475594
519 188 -0.00056391341127447951
519 189 0.0090328222360457969
519 514 0.0029039652418705406
519 515 0.00072282662000511721
519 516 0.00042700904983179028
519 517 -0.0067863268241904889
519 518 0.0074208042153037848
519 519 0.086014716675700695
520 181 -0.0045629495383734059
520 182 -0.0074957983560597708
520 183 -0.00088541993959404886
520 184 -0.00047641065936870615
520 185 0.0061080164658359332
520 186 4.7098316368957265e-05
520 517 -0.026111340281250499
520 518 0.002003668720740117
520 519 -0.00023215231868797099
520 520 0.096512146995722969
521 181 -0.0074957983560597708
521 182 -0.019369665344842534
521 183 -0.0011623385096229115
521 184 0.0061080164658359332
521 185 -0.006527501129517518
521 186 0.00066371885783018589
521 517 0.0020036687207401166
521 518 -0.0027802142176763561
521 519 0.00044895647565865995
521 520 -0.003247643301777149
521 521 0.091866692031485425
522 181 -0.002451688772006595
522 182 -0.0035558205810872494
522 183 -0.0032189820862778278
522 184 0.001641969653210465
522 185 -0.0017346003042714743
522 186 0.0047752593621837426
522 517 0.0029664628905220329
522 518 0.00049119366709889632
522 519 -0.002962163289496827
522 520 -0.0057632337398188793
522 521 0.0058954188380594425
522 522 0.083095625069942544
523 178 -0.0099959117238316852
523 179 -0.01187191498839443
523 180 0.0024977788404059085
523 181 -0.009962324004704929
523 182 0.011811198896406704
523 183 -0.002429205174980833
523 520 -0.032160262023832591
523 521 0.00052805514472578825
523 522 -0.0011213030558180986
523 523 0.11490635072809102
524 178 -0.01187191498839443
524 179 -0.016266629734406058
524 180 0.0030619038946453959
524 181 0.011811198896406706
524 182 -0.016363024201056738
524 183 0.0028885772235773717
524 520 0.00052805514472578858
524 521 -0.0029319169861562683
524 522 6.3396419224276754e-05
524 523 0.0057950965945130165
524 524 0.10161595513243069
525 178 0.00089948083550398395
525 179 0.000672003574031427
525 180 -0.0030438879496584204
525 181 -0.00085298764094982938
525 182 0.00048791770721528019
525 183 -0.0030638570703010169
525 520 0.0020838251493101056
525 521 6.3396419224274829e-05
525 522 -0.0044269202200451514
525 523 -0.0070110748954822482
525 524 -0.0013196627883157214
525 525 0.088202074225109325
526 175 -0.0096986673017127132
526 176 -0.011751141830299877
526 177 0.0025460647075410091
526 178 -0.0095612511713648509
526 179 0.01170779453782117
526 180 -0.0025127271992339052
526 523 -0.03615029363782956
526 524 -0.0042499899647882033
526 525 0.004266519529642715
526 526 0.11075808341782567
527 175 -0.011751141830299881
527 176 -0.016054458587045396
527 177 0.0030751671716955048
527 178 0.011707794537821168
527 179 -0.016397368498980217
527 180 0.0030747090332640743
527 523 -0.0042499899647882025
527 524 -0.0076155475269275288
527 525 0.0012927900612761656
527 526 0.00030077206799464327
527 527 0.085998379238177172
528 175 0.00094813507674951637
528 176 0.00066720668930304698
528 177 -0.0028688959699978314
528 178 -0.0009464583668213597
528 179 0.00066049879703610685
528 180 -0.0029528785436577481
528 523 0.0074720000335401267
528 524 0.0012456442288810022
528 525 -0.0091910145628891562
528 526 -0.00070820151074540635
528 527 -0.006920550015295325
528 528 0.080439134030052803
529 172 -0.0095831920365167921
529 173 -0.011699878393384044
529 174 0.0025266770632411482
529 175 -0.0097846420362445556
529 176 0.0117675577314451
529 177 -0.0025321064845422007
529 526 -0.035060631569999029
529 527 0.0041040669247731868
529 528 -0.0067701882149959619
529 529 0.11453135221799099
530 172 -0.011699878393384044
530 173 -0.016357741731065849
530 174 0.0030791943936238735
530 175 0.0117675577314451
530 176 -0.016219083264743001
530 177 0.0030549641862716585
530 526 0.0041040669247731877
530 527 -0.0066926943268694368
530 528 0.0011962197955397481
530 529 -0.0083478457582878609
530 530 0.098838314633805338
531 172 0.00095341464441686175
531 173 0.00065559702645048325
531 174 -0.0029204803835040632
531 175 -0.00093380847964027579
531 176 0.00063717219919332013
531 177 -0.0029169290721233112
531 526 -0.0035637663443971175
531 527 0.0012152229678671776
531 528 -0.0081462345273822529
531 529 0.010972690618804693
531 530 -0.0017705841776817896
531 531 0.088298915379416712
532 169 -0.020160409865341761
532 170 -0.011766445540449002
532 171 -0.0018145221554400318
532 172 -0.010061534631338067
532 173 0.011717373902176552
532 174 -0.0025506715539634988
532 529 -0.035033284581562456
532 530 0.0039520029186988275
532 531 -0.0072180809723677557
532 532 0.1172945554124729
533 169 -0.011766445540449002
533 170 -0.018222016829610339
533 171 -0.0010554529348264022
533 172 0.01171737390217655
533 173 -0.015919290329737077
533 174 0.0031485907235384572
533 529 0.0039520029186988258
533 530 -0.0070796793399885063
533 531 0.0011130114989008485
533 532 -0.0055487356463247081
533 533 0.10053480848722486
534 169 -0.0031497907285584418
534 170 -0.0033675396278310191
534 171 -0.0087703895924276121
534 172 -0.00095274192317200597
534 173 0.00074885889823860603
534 174 -0.003011538361612132
534 529 -0.0040253154150273057
534 530 0.001185235766037759
534 531 -0.0086756354140905545
534 532 0.014773189646336182
534 533 -0.0026114679675056929
534 534 0.092256285595687035
535 166 -0.011032418522526517
535 167 -0.012176200544983138
535 168 -0.00021497240413154779
535 169 -0.02599686509945269
535 170 0.013991765031532485
535 171 0.0013451367904602734
535 532 -0.021078742541047031
535 533 -0.0021842385495883724
535 534 -0.0036606143593952666
535 535 0.10303652839881683
536 166 -0.012176200544983138
536 167 -0.017089255441135372
536 168 0.00073292838933528069
536 169 0.013991765031532485
536 170 -0.02243596721743733
536 171 0.0004828014420834581
536 532 -0.0021842385495883716
536 533 -0.00039833280235903744
536 534 0.0010012301995551978
536 535 -0.0052589875153858431
536 536 0.089922256367259451
537 166 -0.0013095440417793347
537 167 -0.0013776281781451333
537 168 -0.0042870889870721138
537 169 0.0029183992092845601
537 170 -0.0019012934984354592
537 171 -0.01049769975147054
537 532 -0.00048465633077960274
537 533 0.0012957392490092184
537 534 2.7565704431292172e-05
537 535 0.0011704997160018531
537 536 -0.0054229584789003181
537 537 0.077061494480151038
538 283 -0.019839515704866129
538 284 0.01258016353144476
538 285 0.00069923965816240147
538 286 -0.018218216957697275
538 287 -0.012390279096419706
538 288 0.00086243767884139843
538 535 -0.01526655589364289
538 536 0.012580299600359203
538 537 -0.0054411370952922103
538 538 0.08929155941262315
539 283 0.012580163531444758
539 284 -0.018528512816236735
539 285 0.00064318276276127901
539 286 -0.012390279096419704
539 287 -0.012501097642242618
539 288 -0.0003529035962539149
539 535 0.012580299600359203
539 536 -0.022235959027509741
539 537 0.0061510268909793315
539 538 0.0017535728863738672
539 539 0.12120156414928498
540 283 -0.0015602629436991403
540 284 0.0018772302059680177
540 285 -0.0077650657680605542
540 286 -0.0012481188886390195
540 287 -0.0014474752339017046
540 288 -0.0051396546325350395
540 535 -0.0033597507043243336
540 536 0.0043349793729529377
540 537 -0.0095077277722064261
540 538 0.00771841797273882
540 539 -0.0030413085799795999
540 540 0.083365989596651452
541 280 -0.0095910135379367288
541 281 0.0078312176961275771
541 282 -0.00062878595829635978
541 283 -0.03538652686375799
541 284 -0.0097561665503660723
541 285 -0.014514677969301223
541 538 0.00039086724322923486
541 539 -4.7131077842530334e-06
541 540 0.0010859062881252331
541 541 0.088229659659579032
542 280 0.0078312176961275771
542 281 -0.00055486598431686508
542 282 0.0038828531938362122
542 283 -0.0097561665503660723
542 284 -0.013283392178823872
542 285 -0.0049898678049344405
542 538 -4.713107784252925e-06
542 539 -0.021366059269598246
542 540 0.00059498014942071967
542 541 0.0039627048624132155
542 542 0.08293512562888497
543 280 -0.0027227894349962853
543 281 0.0049376963724512618
543 282 0.0017230081576895531
543 283 -0.016901192607854491
543 284 -0.0062805033452075004
543 285 -0.02189348902304241
543 538 0.0010567361116126921
543 539 -0.0023156390062534643
543 540 -0.00067722140024346726
543 541 0.015807020340678931
543 542 0.0041317692467509031
543 543 0.077455206302435811
544 274 -0.015136250381677881
544 275 -0.012252735895415695
544 276 -0.0016988790289362782
544 277 -0.0049216329485375077
544 278 0.0072769530178384868
544 279 0.0029601729185585552
544 541 -0.012277329880092072
544 542 -0.011853996358167515
544 543 -0.00056916242428280692
544 544 0.10723320336801866
545 274 -0.012252735895415697
545 275 -0.017360133065672932
545 276 -0.0026776083099174447
545 277 0.0072769530178384868
545 278 -0.022647732527100548
545 279 -0.0082700933339990932
545 541 -0.011853996358167515
545 542 -0.012057623393151119
545 543 -0.00024243655497647695
545 544 0.0064220852878188487
545 545 0.091281996559727713
546 274 -8.2367628623952445e-05
546 275 -0.00030919664905182457
546 276 -0.0049719647525207772
546 277 0.0018490481901302764
546 278 -0.0061198083074859386
546 279 -0.0077100436092964169
546 541 -0.0026923360774952737
546 542 -0.0020982125320356112
546 543 -0.002152396662598542
546 544 -0.0060522796241086326
546 545 0.011208305204901955
546 546 0.081604311296074442
547 271 -0.0099694030288793138
547 272 -0.010997708194883975
547 273 -0.0023814752487952731
547 274 -0.0091084326399785732
547 275 0.011614762777808898
547 276 0.0019593502859973164
547 544 -0.028486697089778013
547 545 0.0038589847266211359
547 546 0.0039738617588231662
547 547 0.10611153621096445
548 271 -0.010997708194883977
548 272 -0.014391417215233782
548 273 -0.0025072162430228705
548 274 0.011614762777808901
548 275 -0.017210508076715095
548 276 -0.0026534192145436729
548 544 0.0038589847266211367
548 545 -0.0034030143876166196
548 546 -0.00074197457356302776
548 547 -0.0065215980007517242
548 548 0.085962114857107669
549 271 -0.0007799267409439026
549 272 -0.00011035150394832108
549 273 -0.0023510452700564676
549 274 0.00057148906198379429
549 275 -0.000249573060697517
549 276 -0.003151741823774366
549 544 0.00073956337718241979
549 545 -0.00044746552410900758
549 546 -0.0037099792999886936
549 547 -0.0074959484536350528
549 548 0.0047527806977889194
549 549 0.081606564600088652
550 268 0.0016735253397718588
550 269 -0.0039596915755809878
550 270 -0.00047259516116437473
550 271 -0.0024861149285044359
550 272 0.0068670889805035737
550 273 -0.0017382960034439238
550 547 -0.031186452305602807
550 548 0.0043511729215614569
550 549 0.006861005506894665
550 550 0.096394047753712853
551 268 -0.0039596915755809878
551 269 -0.0023333249090302932
551 270 -0.00097758498286958052
551 271 0.0068670889805035728
551 272 -0.013588208838088383
551 273 0.001383167232185845
551 547 0.0043511729215614577
551 548 -0.0062067250600701404
551 549 -0.0017768414007827483
551 550 -0.003112824468885533
551 551 0.10603004368465162
552 268 0.0011221600466753525
552 269 0.0014394286361541263
552 270 0.0097730165913594812
552 271 -0.0033548074037562485
552 272 0.0038224478790125299
552 273 -0.00039812651376929279
552 547 0.003643514653978705
552 548 -0.0017046171336458362
552 549 -0.0069190740089181517
552 550 -0.011933755859805361
552 551 -0.010770929996305766
552 552 0.094699269665453389
553 265 -0.0095014899657488959
553 266 -0.011728326923385959
553 267 -0.0025308888299967677
553 268 -0.003303118419346661
553 269 0.0082163377816772375
553 270 0.0046955033272322241
553 550 -0.021899150666523717
553 551 -0.0018902943371294631
553 552 0.0042614510515704591
553 553 0.10901214957541669
554 265 -0.011728326923385959
554 266 -0.016441713976400305
554 267 -0.0031117051878707079
554 268 0.0082163377816772375
554 269 -0.012865173429496016
554 270 -0.0048518157686902345
554 550 -0.0018902943371294633
554 551 -0.00096015620680821475
554 552 -0.00081337569779722557
554 553 0.008110941807991337
554 554 0.10127071712007779
555 265 -0.00096829495653970928
555 266 -0.0006997790549050294
555 267 -0.0029745278463957801
555 268 0.0030939548193808534
555 269 -0.0024409882000724754
555 270 -0.00071874344205529231
555 550 0.0010576165119128922
555 551 -0.00079437252546979821
555 552 -0.0014997254225665674
555 553 0.0080384764096070038
555 554 0.0046599909330915261
555 555 0.087257148933429618
556 262 -0.0097577357130966703
556 263 -0.0099835645723309503
556 264 -0.0020805771981550068
556 265 -0.0099364867950549711
556 266 0.011920675043450487
556 267 0.0025337295765709179
556 553 -0.035179642579216006
556 554 -0.0046795262437686162
556 555 -0.0034592239293947434
556 556 0.11148623393386248
557 262 -0.0099835645723309521
557 263 -0.012986846835033599
557 264 -0.0012416026331895237
557 265 0.011920675043450488
557 266 -0.016428309126168703
557 267 -0.0031462153248675985
557 553 -0.0046795262437686162
557 554 -0.0070372338643863866
557 555 -0.0012200832953082378
557 556 0.0016044075258566191
557 557 0.082437194126112417
558 262 -0.00049687548333669253
558 263 0.0011571354442568168
558 264 -0.0016878127509331125
558 265 0.00093897436873118943
558 266 -0.00075553663619899779
558 267 -0.0031015698682407646
558 553 -0.0066639998357537426
558 554 -0.0012672291277034033
558 555 -0.0082430904807399702
558 556 -0.0091811060825973852
558 557 0.005673547911564312
558 558 0.08600062197401398
559 259 -0.0066578513418960768
559 260 -0.01013333176112808
559 261 -0.0037290370745232128
559 262 -0.0094015390891520334
559 263 0.0098822411553846114
559 264 0.0021545556313010365
559 556 -0.011417670522404267
559 557 3.4763565201235795e-05
559 558 0.0016222569178015586
559 559 0.11777736478037645
560 259 -0.010133331761128078
560 260 -0.015690004278285714
560 261 -0.0048033406827549269
560 262 0.0098822411553846114
560 263 -0.012761942260776135
560 264 -0.0012614552509647538
560 556 3.4763565201235687e-05
560 557 0.0018409116179623516
560 558 0.00035465330796209562
560 559 0.0061227194253986698
560 560 0.094135041974009084
561 259 -0.0021284158424862529
561 260 -0.0024055692373897305
561 261 -0.0021581871387533116
561 262 0.00059196175784397812
561 263 0.0011343109237618766
561 264 -0.0015356431484530319
561 556 -0.0015828712873266458
561 557 0.00035465330796209562
561 558 0.0053048445279557698
561 559 0.021220592361744121
561 560 0.0017643447462408093
561 561 0.090290872386646348
562 256 -0.0037332168026879128
562 257 -0.0064242071318024833
562 258 0.0012420956502929093
562 259 -0.00019498701924335692
562 260 0.0055398627745282952
562 261 -0.00075068840930567053
562 559 -0.025302038242360943
562 560 -9.4095914161419617e-05
562 561 -0.0081056504642581118
562 562 0.095276301670648059
563 256 -0.0064242071318024833
563 257 -0.016760503310211693
563 258 0.0012719937540261281
563 259 0.0055398627745282952
563 260 -0.0058836507955722355
563 261 0.0010183789799004389
563 559 -9.4095914161419509e-05
563 560 -0.0032393645610710436
563 561 -0.0013339488781286229
563 562 -0.0081503356069957174
563 563 0.078800604545232383
564 256 0.0028430203055597727
564 257 0.0036748296935224297
564 258 -0.0021222188250819389
564 259 -0.0023343901241239858
564 260 0.0034273332101464058
564 261 0.0046843275069170954
564 559 -0.011317291665304518
564 560 -0.0012917116866883868
564 561 -0.0073696516571428962
564 562 0.0098311074988570828
564 563 -0.0036095354614768811
564 564 0.089133582539037221
565 253 -0.0099444582837460768
565 254 -0.010138837803516139
565 255 -0.0020784703014232971
565 256 -0.0094817273764730946
565 257 0.01180019196620234
565 258 0.0026743542659681202
565 562 -0.033636033438916885
565 563 0.0045427315842240627
565 564 0.0073227091303964178
565 565 0.11545487021713047
566 253 -0.01013883780351614
566 254 -0.013173349679566813
566 255 -0.0014007660542498248
566 256 0.01180019196620234
566 257 -0.016331607077826792
566 258 -0.0032845839085657545
566 562 0.0045427315842240619
566 563 -0.0072271017517527144
566 564 -0.0010444564795035844
566 565 -0.0071117379316540767
566 566 0.095352304908841737
567 253 -0.00048190085003702412
567 254 0.0010041157347803554
567 255 -0.0017308674034749183
567 256 0.0010737330339311607
567 257 -0.00087466304623864607
567 258 -0.002937621058833521
567 562 0.0040976511370784709
567 563 -0.0010263162727492958
567 564 -0.0085563220738472095
567 565 -0.016475610770825318
567 566 0.0017894693504345604
567 567 0.091470839290822614
568 250 -0.0015836375183747422
568 251 -0.0079945313149104441
568 252 -0.0047860257096193548
568 253 -0.0093659005914567064
568 254 0.010488134352984449
568 255 0.0023932539556237591
568 565 -0.013746965172162784
568 566 -8.3104424351685595e-06
568 567 0.0024205232572953252
568 568 0.10899850657558954
569 250 -0.0079945313149104441
569 251 -0.00968786169287476
569 252 -0.0032207131343938659
569 253 0.01048813435298445
569 254 -0.013873279623468371
569 255 -0.0020550461410181135
569 565 -8.3104424351683427e-06
569 566 0.001531025560509052
569 567 0.0006221475269091864
569 568 0.00043586523285057705
569 569 0.079202221236278375
570 250 -0.0031967136379724053
570 251 -0.00081472020377750302
570 252 0.00236250841872488
570 253 0.00079232930035689738
570 254 0.00034981022717789275
570 255 -0.0017660287737014905
570 565 -0.00078460494783287886
570 566 0.0006221475269091864
570 567 0.0037963576655320732
570 568 0.00088418188082768114
570 569 0.0074545790447547184
570 570 0.081538974058680561
571 247 -0.0014010715931996589
571 248 -0.0078953367452962008
571 249 -0.004742915375981871
571 250 -0.0081046908048135816
571 251 0.0080310372665264081
571 252 0.0048078804520808975
571 568 -0.043892919501536398
571 569 -0.00019898147737823892
571 570 0.013574027802877522
571 571 0.13116263731489278
572 247 -0.0078953367452962008
572 248 -0.0098248285241259031
572 249 -0.0032940344501786807
572 250 0.0080310372665264081
572 251 -0.024202359258122079
572 252 -0.01122395018924959
572 568 -0.00019898147737823924
572 569 -0.0093798990111000537
572 570 0.00082995962580302628
572 571 0.011960132618702633
572 572 0.12475456269014393
573 247 -0.0031991992942933837
573 248 -0.00088013350923641905
573 249 0.0022905679146469522
573 250 0.0032113110006946259
573 251 -0.0088211396705874627
573 252 -0.012068856286396142
573 568 0.010360717519399775
573 569 0.00083140179421443473
573 570 -0.014480184064203311
573 571 -0.012371095358907548
573 572 0.0014458092379662896
573 573 0.10370042743918707
574 244 -0.0017894215142550912
574 245 -0.0079654286262555371
574 246 -0.0046212420280717864
574 247 -0.0085394784552803669
574 248 0.0081285374609118867
574 249 0.0048830045571611998
574 571 -0.049102186697664467
574 572 -0.010595222640340095
574 573 0.0037832001656047461
574 574 0.13249864364791283
575 244 -0.0079654286262555371
575 245 -0.010485847510068591
575 246 -0.003353583627520299
575 247 0.0081285374609118884
575 248 -0.024821745163270563
575 249 -0.011269366861683779
575 571 -0.010595222640340093
575 572 -0.018541985046313016
575 573 0.001731353794714437
575 574 0.020408507259228274
575 575 0.12693852599658945
576 244 -0.003095129448975394
576 245 -0.00090815098063760881
576 246 0.001961503497311977
576 247 0.0032936924855142507
576 248 -0.0088676674846078357
576 249 -0.012340156121067215
576 571 0.00059862342397940492
576 572 0.0017284001369415926
576 573 -0.016750016156321219
576 574 -0.0047716248493413042
576 575 0.0022289678028200046
576 576 0.10162467156988476
577 241 -0.013989117176898349
577 242 -0.011828208665018599
577 243 -0.00098357436195437931
577 244 -0.0082870108153985499
577 245 0.0080573087702174376
577 246 0.0046745474310506616
577 574 -0.048131801340429811
577 575 -0.010547813434989404
577 576 0.0040043572596233645
577 577 0.1249068163004583
578 241 -0.011828208665018601
578 242 -0.016846662506172477
578 243 -0.00127842719035712
578 244 0.0080573087702174376
578 245 -0.024732955382814326
578 246 -0.011210028485358861
578 574 -0.010547813434989404
578 575 -0.018220890194690156
578 576 0.0019954026389597721
578 577 0.011678831224017675
578 578 0.10550670391093067
579 241 0.00061266405115574778
579 242 0.0011428980302617101
579 243 -0.0042827295453061968
579 244 0.0031308313493621739
579 245 -0.0088162371186088148
579 246 -0.012081202240641976
579 574 0.0008888232699130412
579 575 0.0019989951698512515
579 576 -0.016497394319031997
579 577 -0.015536182335915709
579 578 0.0080766089109957518
579 579 0.09386790340472137
580 238 -0.0094779530489417611
580 239 -0.011699063219902092
580 240 -0.0024781759864890398
580 241 -0.0097328257929161239
580 242 0.012416346982438306
580 243 0.0023816072716615448
580 577 -0.035357357502749029
580 578 0.0028886472993769462
580 579 0.0094023324413073858
580 580 0.11959230042744699
581 238 -0.011699063219902092
581 239 -0.016461657835007245
581 240 -0.0030641418091071453
581 241 0.012416346982438306
581 242 -0.017607123196557752
581 243 -0.003889850675745027
581 577 0.0028886472993769458
581 578 -0.0055614540375791104
581 579 -0.0015947601478557053
581 580 0.00030742525656350314
581 581 0.11286606108148914
582 238 -0.00093144376578649412
582 239 -0.00065476691989001809
582 240 -0.0029839738431308598
582 241 0.00085549469256515284
582 242 -0.0015275910149354125
582 243 -0.0034981387659252993
582 577 0.0061972042361791808
582 578 -0.0015947601478557057
582 579 -0.0088919286440762267
582 580 -0.0030952494871430542
582 581 -0.0028195816873318085
582 582 0.095321892932504329
583 235 -0.00050866347210891231
583 236 -0.0055825988801570144
583 237 0.0008949318066726001
583 238 -0.0043587797232937471
583 239 0.0065730066160040153
583 240 -0.0013354950709251832
583 580 -0.0349320282235486
583 581 -0.0044935808314613595
583 582 -0.0033502307844118597
583 583 0.098872064649637312
584 235 -0.0055825988801570144
584 236 -0.0062309071282835252
584 237 0.0011615236834879405
584 238 0.0065730066160040162
584 239 -0.017432721843459981
584 240 0.001602728982870354
584 580 -0.0044935808314613595
584 581 -0.0066866785655048154
584 582 -0.0012828530215380006
584 583 0.0091636551970421982
584 584 0.08204818017813037
585 235 0.0024568557993607772
585 236 0.0035691549300189479
585 237 0.004233304980392533
585 238 -0.0029317334840353107
585 239 0.0039890960699438321
585 240 -0.0026878963262392027
585 580 -0.0064692122185783327
585 581 -0.0012944399471748809
585 582 -0.008120240274960857
585 583 -0.010646002756384193
585 584 -0.0073373392076085901
585 585 0.086704386188084959
586 232 -0.0098200217236705575
586 233 -0.009991794212125947
586 234 -0.0020742777157561677
586 235 -0.0065740005549675172
586 236 0.01009042647175412
586 237 0.0035652928630613922
586 583 -0.027434505752382182
586 584 2.5395816498816363e-05
586 585 0.011319170347059229
586 586 0.11886247910888532
587 232 -0.009991794212125947
587 233 -0.013111039132114446
587 234 -0.0011838312476508807
587 235 0.010090426471754118
587 236 -0.015865464587977191
587 237 -0.0046948340624795356
587 583 2.5395816498816146e-05
587 584 -0.0029249812523303143
587 585 -0.0017089950645714795
587 586 -0.0065652731720868083
587 587 0.096579436795763696
588 232 -0.00048693308888124719
588 233 0.001248586595134833
588 234 -0.0017057646846679641
588 235 0.0020185606423588466
588 236 -0.0022965166440043552
588 237 -0.0021592783434360502
588 583 0.0081140421419310244
588 584 -0.0017089950645714793
588 585 -0.0074836322408961681
588 586 -0.021411452038058366
588 587 1.7321966603329325e-05
588 588 0.090986522865846131
589 229 -0.010884024325681575
589 230 -0.010853000638772854
589 231 -0.0018662576624012411
589 232 -0.0091428494196944248
589 233 0.0098321440487217637
589 234 0.0022165857777419616
589 586 -0.010577206516375563
589 587 -8.8864983064485469e-05
589 588 0.0016956573207140588
589 589 0.11305754517701568
590 229 -0.010853000638772854
590 230 -0.014933796120667364
590 231 -0.0016643819709261814
590 232 0.0098321440487217637
590 233 -0.012440334840934503
590 234 -0.0012731282437066184
590 586 -8.8864983064485415e-05
590 587 0.0022580290985124382
590 588 0.00039188799892926011
590 589 0.0034061470254176432
590 590 0.088614126809344371
591 229 -0.00029345789198839071
591 230 0.00076234898124898694
591 231 -0.0026517879101985858
591 232 0.00065466178505378322
591 233 0.0011269328174546855
591 234 -0.0013677225812552254
591 586 -0.0014073492157545648
591 587 0.00035116512568820666
591 588 0.0055148279892525704
591 589 0.0073346047081932538
591 590 0.002869135016219979
591 591 0.092584860696680704
592 226 -0.017131027439345456
592 227 -0.012112227510016383
592 228 0.00089175815613747522
592 229 -0.011713329052042547
592 230 0.010344689976707186
592 231 0.0016192612976686515
592 589 -0.014549823658104595
592 590 -2.8769422553974119e-05
592 591 0.00095599579268947153
592 592 0.12649214887227478
593 226 -0.012112227510016385
593 227 -0.017886355217887298
593 228 0.00020015245130952869
593 229 0.010344689976707186
593 230 -0.013549673303649402
593 231 -0.0012387804069654952
593 589 -2.8769422553974336e-05
593 590 0.001343780911451058
593 591 0.00030993357661680322
593 592 0.00074479677539864226
593 593 0.083173992042695752
594 226 0.0022270267292558831
594 227 0.002512239144314146
594 228 -0.0068327433006056277
594 229 3.1916670793731078e-05
594 230 0.0011364940579410988
594 231 -0.0027232601603402527
594 589 -0.0022491324124387351
594 590 0.00030993357661680669
594 591 0.0032245938543535688
594 592 0.0043094262609620062
594 593 -0.0025812451543915441
594 594 0.091674747166953799
595 223 -0.013020994793942336
595 224 -0.01054836483508708
595 225 0.00083215668279478894
595 226 -0.023891076404509486
595 227 0.014009412410050458
595 228 -0.00070740905451328396
595 592 -0.02306349292913195
595 593 -0.0018725014469274644
595 594 0.0028133369773054055
595 595 0.10104284774949254
596 223 -0.01054836483508708
596 224 -0.015057736298866271
596 225 0.00096107063372043405
596 226 0.014009412410050458
596 227 -0.022001774287055267
596 228 -0.0010731896045125186
596 592 -0.0018725014469274637
596 593 -0.0006011392112073011
596 594 -0.0006662399010087766
596 595 -0.0056747467531162565
596 596 0.081570371439702374
597 223 0.0019185624477091987
597 224 0.0031011394463866587
597 225 -0.0056964426145515246
597 226 -0.0022802088249261341
597 227 0.0013077717510046175
597 228 -0.0092396079319871545
597 592 -0.00039179122782280061
597 593 -0.00087914302198273658
597 594 -0.00091646373607094439
597 595 -0.0081068476166319854
597 596 0.0057190286357132279
597 597 0.078016790281574988
598 160 -0.01480384639774323
598 161 0.009826516643622895
598 162 -0.0012758448033511774
598 163 -0.015732861799142996
598 164 -0.010433420338214695
598 165 0.00072227477379030545
598 595 -0.0050105151011308156
598 596 0.0069847319869382075
598 597 0.0012721279347415225
598 598 0.07099515759201451
599 160 0.0098265166436228932
599 161 -0.010941585705412656
599 162 0.0014224590877383501
599 163 -0.010433420338214696
599 164 -0.014207000538418335
599 165 0.00092871716774848645
599 595 0.0069847319869382075
599 596 -0.0036980430279643607
599 597 -9.6578878862479478e-05
599 598 0.0018718569872969082
599 599 0.085608767327891591
600 160 0.0010165994659877731
600 161 0.00015257462639460304
600 162 -0.0036298811276199369
600 163 0.0028409972140041005
600 164 0.0019937765602104649
600 165 -0.0064093640044486965
600 595 -0.00084659450547227373
600 596 0.0018305868128297858
600 597 0.0041992263393632141
600 598 0.010425878539683443
600 599 0.0013163515569584888
600 600 0.080276841839365273
601 157 -0.016884483990067332
601 158 0.011934022573836727
601 159 0.00032075347545612652
601 160 -0.01686590631776945
601 161 -0.010243535727085138
601 162 -0.0016471658756819132
601 484 -0.012677664496749216
601 485 -0.012153406269655855
601 486 0.00088039911067615956
601 598 0.0014015849889883034
601 599 5.3000129828817606e-05
601 600 6.2503616521101309e-06
601 601 0.080622536152610821
602 157 0.011934022573836727
602 158 -0.013302742495666896
602 159 -0.0010495787459462785
602 160 -0.010243535727085138
602 161 -0.012314258728200831
602 162 -0.0014976295306883762
602 484 -0.012153406269655855
602 485 -0.011452953336765853
602 486 0.0015491323772882327
602 598 5.3000129828817389e-05
602 599 -0.012277218863675603
602 600 -0.0015031208199826822
602 601 0.00032833916245529686
602 602 0.10466134933956306
603 157 0.0024286502785398679
603 158 -0.0021282815075184592
603 159 -0.0056236180054944421
603 160 0.00073250869632278631
603 161 -0.0001988108915726665
603 162 -0.0045619767087665365
603 484 -0.0012274976924075808
603 485 -0.00036438994529383009
603 486 -0.0017455655777381003
603 598 6.2503616521096973e-06
603 599 0.0014891042641715616
603 600 0.0038049848035503781
603 601 0.00028408631715675378
603 602 -0.006742409509137787
603 603 0.07962486194176914
604 13 -0.013799559865730671
604 14 -0.01241216430830655
604 15 0.0015081844610777793
604 166 -0.03149826101325863
604 167 0.012410359280663506
604 168 0.0012075806619691602
604 286 -0.027442710529938928
604 287 0.012161500204280019
604 288 0.00061639578494827223
604 535 -0.016770226634600677
604 536 -0.0023709833047345567
604 537 0.00087510872405039655
604 538 -0.00032013067275395233
604 539 -0.0021299612780449574
604 540 0.00084333094913246901
604 604 0.10013327063341144
605 13 -0.01241216430830655
605 14 -0.013799559865730655
605 15 0.0015081844610777819
605 166 0.012410359280663507
605 167 -0.028151602376445511
605 168 0.00044488151120701563
605 286 0.012161500204280022
605 287 -0.031161377295701856
605 288 0.0011727425196016484
605 535 -0.0023709833047345576
605 536 0.00013125448967742342
605 537 0.00084052696333870012
605 538 -0.0021299612780449574
605 539 -0.01862051127570321
605 540 0.00078985815069575844
605 604 -0.0076991346453803228
605 605 0.1019034567551818
606 13 -9.4379641486323383e-05
606 14 -9.4379641486320347e-05
606 15 -0.0036488724749350653
606 166 0.0025428492350875707
606 167 -0.0020507241034806744
606 168 -0.013785178682618247
606 286 -0.0018047818841907663
606 287 0.0024633780598747081
606 288 -0.013528447538832478
606 535 0.003296286393189434
606 536 0.0011524555256297426
606 537 -0.00069205254526782543
606 538 0.0011106264785781606
606 539 0.0032854637653834491
606 540 -0.0012252723380197185
606 604 -0.0049162604175818046
606 605 -0.0046217302463245824
606 606 0.069711402041428339
607 22 -0.014007366207651809
607 23 0.012459236295013779
607 24 0.0014728804710473565
607 277 -0.0071050032696203472
607 278 -0.009089349434884892
607 279 -0.0036974329748323456
607 280 -0.030141703558594999
607 281 -0.012769436276217436
607 282 0.00010411971960663314
607 541 0.00087244761802709428
607 542 0.0017130161858003431
607 543 0.00097273784624444062
607 544 -0.0327206787912762
607 545 0.0010649757641147211
607 546 0.003227215023013875
607 607 0.093670891562816314
608 22 0.012459236295013776
608 23 -0.014224146863638095
608 24 -0.0014728804710473647
608 277 -0.009089349434884892
608 278 -0.01809508774963816
608 279 -0.0049392011028172207
608 280 -0.012769436276217436
608 281 -0.031413841797393767
608 282 -0.0012361941995652746
608 541 0.0017130161858003436
608 542 -0.016583957188226618
608 543 -0.00084617116416550774
608 544 0.0010649757641147195
608 545 -0.005447333673462753
608 546 0.0015893267049791333
608 607 0.0068088450280762991
608 608 0.095900165421410985
609 22 -0.00012968363151674559
609 23 0.0001296836315167392
609 24 -0.0038217663190915257
609 277 -0.0023095717508188236
609 278 -0.0025353549489710685
609 279 -0.0036221116250726216
609 280 -0.0024440699862241341
609 281 -0.0024702416427720133
609 282 -0.014505882459341826
609 541 0.0011874407247950206
609 542 -0.0032500173180116604
609 543 -0.00044131029859424686
609 544 0.0057754047288446405
609 545 0.001220810045621768
609 546 -0.0066524924475110736
609 607 -0.0018663592179981869
609 608 0.0064426566343201829
609 609 0.06587571261986401
610 16 -0.013945318842921583
610 17 0.01243887073374913
610 18 -0.0014881546419958452
610 157 -0.029021200079098912
610 158 -0.013337830326027013
610 159 -0.00037919213464313934
610 220 -0.031988875922709992
610 221 -0.013010599891945338
610 222 -0.0012679969640891767
610 484 -0.016508967282325426
610 485 0.0023755360531655494
610 486 0.00036888186835903794
610 601 0.00050032412250289825
610 602 0.00193750385352907
610 603 -0.00095215858750076878
610 610 0.10230459322770988
611 16 0.012438870733749129
611 17 -0.014017241208354403
611 18 0.0014881546419958521
611 157 -0.013337830326027013
611 158 -0.030040601003506081
611 159 0.0008980812276349917
611 220 -0.013010599891945338
611 221 -0.028415241712442769
611 222 0.00017297653266102114
611 484 0.0023755360531655494
611 485 0.00020575284419528011
611 486 0.0010115221437353814
611 601 0.0019375038535290698
611 602 -0.016458479429768687
611 603 -0.00060079991816028452
611 610 0.009555555447342037
611 611 0.10005855397660844
612 16 0.00011440946056825736
612 17 -0.00011440946056825183
612 18 -0.0037479976579412092
612 157 0.0021360559037102182
612 158 0.0021679656889787386
612 159 -0.013957767496074315
612 220 -0.0026032655372075879
612 221 -0.0023226290820266659
612 222 -0.014521042231110597
612 484 -0.0021463661699943188
612 485 0.0013442017849557388
612 486 0.00019961504218809893
612 601 -0.0012194541169464606
612 602 0.0018948056965274029
612 603 0.00023010977977483307
612 610 0.0038919495492052052
612 611 -0.0031422974782814011
612 612 0.070565813451870782
613 19 -0.014284095162241352
613 20 -0.012489209011412736
613 21 -0.0014504009337481375
613 163 -0.026048198207645815
613 164 0.01231194946326058
613 165 -0.00051280172632109681
613 223 -0.028425166006649079
613 224 0.012057756055524557
613 225 -0.00075990217794592342
613 595 -0.011035474390468179
613 596 -0.0017189437761584625
613 597 0.0011174347445915395
613 598 0.00080823048404529674
613 599 -0.0016273228766046665
613 600 -0.00097313424660283522
613 613 0.096641005865740121
614 19 -0.012489209011412736
614 20 -0.0143652356613179
614 21 -0.0014504009337481453
614 163 0.01231194946326058
614 164 -0.027942006290292698
614 165 -0.00067290084258517431
614 223 0.012057756055524557
614 224 -0.025934252093503002
614 225 -0.00011090252573990078
614 595 -0.0017189437761584629
614 596 0.0013924398233729827
614 597 -0.0010882318241664283
614 598 -0.0016273228766046661
614 599 -0.01252623290788734
614 600 0.0015466191245973792
614 613 -0.0074833083462403967
614 614 0.096993912265572524
615 19 0.00015216316881596422
615 20 0.00015216316881595836
615 21 -0.0039352209510089978
615 163 0.0019152160093665106
615 164 -0.0019717194817008834
615 165 -0.013322101644539699
615 223 -0.0020951707510643326
615 224 0.0023847030889477868
615 225 -0.013825645086829689
615 595 -0.0013105829910960685
615 596 -0.0013919772876148228
615 597 0.0030289513101838827
615 598 -0.0012404297760485283
615 599 -0.00094898649009030761
615 600 0.0023380098080130023
615 613 0.0053560703657958841
615 614 0.0045526874583197213
615 615 0.071877418687168126
616 484 0.0022800040281727172
616 485 0.0047474876005693849
616 486 0.00098583852889369138
616 487 -0.0064521266311762119
616 488 -0.0086876015108547765
616 489 -0.0017600548320813427
616 592 -0.015125572777235644
616 593 0.012639180528184855
616 594 0.00023549576162925652
616 595 -0.0015746664982196419
616 596 -0.0033838183102562836
616 597 -0.001033412314826304
616 598 -0.014649361616528921
616 599 -0.0059222039807101425
616 600 -0.0084841969391048801
616 601 -0.014039934477683765
616 602 0.0078426698121212626
616 603 -0.00094195487073201888
616 616 0.093752057331738733
617 484 0.0047474876005693849
617 485 -0.010903286463024398
617 486 -0.0007995563519782123
617 487 -0.0086876015108547765
617 488 -0.017788445885373372
617 489 -0.002572801106516088
617 592 0.012639180528184857
617 593 -0.014490633809750107
617 594 -0.00043529719794661555
617 595 -0.0033838183102562827
617 596 -0.021082822299795096
617 597 -0.0062013782943626224
617 598 -0.0059222039807101425
617 599 -0.0032601872452961336
617 600 -0.0030308945143698481
617 601 0.0078426698121212626
617 602 -0.0088264860780554906
617 603 0.00097297914023637764
617 616 -0.0054047192665648168
617 617 0.09571399664525973
618 484 0.0019282867968341999
618 485 -0.0035131973487157052
618 486 0.0030574725406621152
618 487 -0.003629914464091135
618 488 -0.0048848877995207084
618 489 -0.003656289411615255
618 592 -0.00163436387038054
618 593 0.0018767894950580052
618 594 -0.0039059247304278231
618 595 -0.00017819434955154549
618 596 -0.0035166714753970913
618 597 -0.0034261027168458547
618 598 -0.0059244571403202356
618 599 -0.0018051733610259079
618 600 -0.0040595656148888111
618 601 0.0017050152307183724
618 602 -0.00022380783533559965
618 603 -0.001922336535656587
618 616 0.00076971322037801184
618 617 0.01319644419319522
618 618 0.097885531539926851
619 532 -0.0026278140179118842
619 533 0.0085712060248017054
619 534 -0.0024434244773693971
619 535 0.0027590306899815406
619 536 -0.0046279138637941456
619 537 0.0024339566152104036
619 538 -0.021223342981387918
619 539 -0.012431448187786642
619 540 -0.0029876214771589714
619 541 -0.013955922942642168
619 542 0.0085985057844189285
619 543 -0.0012780312215819043
619 544 0.0024756250093422045
619 545 0.0035969493815907506
619 546 -0.00036578231191260321
619 547 -0.0041442752512816407
619 548 -0.007251220637001502
619 549 0.0014942443432133978
619 619 0.099424540864295058
620 532 0.0085712060248017054
620 533 -0.0069348400668777354
620 534 0.001732575448895131
620 535 -0.0046279138637941464
620 536 -0.011963767326072929
620 537 0.00074388427138805666
620 538 -0.012431448187786642
620 539 -0.014283953105903366
620 540 -0.0017112087214973648
620 541 0.0085985057844189285
620 542 -0.0076162424029792624
620 543 -0.00077949516381109875
620 544 0.0035969493815907506
620 545 -0.0075784804359193825
620 546 0.0010476273028721234
620 547 -0.0072512206370015011
620 548 -0.014848935626356728
620 549 0.00067153733152184052
620 619 -0.00013195439978504577
620 620 0.10504999393670436
621 532 -0.00058592749314735713
621 533 -0.00050728697697257426
621 534 0.0030219033408537123
621 535 0.001586041364895653
621 536 -0.001952139231421903
621 537 0.0039544086315177534
621 538 -0.0055144196084662058
621 539 -0.0029727668929783171
621 540 -0.0077148328939728493
621 541 -0.003879248738685755
621 542 0.00033371544976199376
621 543 -0.0021645345875713679
621 544 -0.0012974606174310428
621 545 0.0037845556230951078
621 546 0.0052394828055958333
621 547 0.0033238739721158351
621 548 0.0030031592182310847
621 549 -0.0012011596382059729
621 619 0.0040797362251776652
621 620 -0.0080309045045868256
621 621 0.10012737424934558
622 523 -0.008746990027987173
622 524 0.00684022318640852
622 525 -0.00045138856359239763
622 526 -0.0019679070073389464
622 527 -0.0087632726753435891
622 528 -0.00051640146518241894
622 553 -0.01065954460017215
622 554 0.005674541118452699
622 555 0.0009604322746024959
622 556 -0.0016017250109253921
622 557 -0.0085629236722294232
622 558 0.00018882202236417903
622 622 0.11013518048909315
623 523 0.0068402231864085209
623 524 -0.030489507164002297
623 525 -0.0008274232863276906
623 526 -0.0087632726753435891
623 527 -0.010376961266926037
623 528 0.0021583617016842746
623 553 0.0056745411184526999
623 554 -0.032899219155592546
623 555 -0.0023787525276201529
623 556 -0.0085629236722294232
623 557 -0.010392333258603552
623 558 -0.0020042097683870383
623 622 0.013116624247156101
623 623 0.11623969486615607
624 523 0.0011554416366338829
624 524 -0.0032173236069416604
624 525 -0.0089113999687622236
624 526 -0.0021565545033687171
624 527 -0.00027485170687112218
624 528 0.0025134885454205589
624 553 -0.00068080839159801192
624 554 5.2176777672953835e-05
624 555 -0.010638621322708108
624 556 0.0017991950196526553
624 557 0.00038646892028156184
624 558 0.0022472882044559574
624 622 -0.00082077157151315514
624 623 0.0028744351546028403
624 624 0.09514535474276066
625 508 -0.0098982324055647223
625 509 0.0053191919897710872
625 510 -0.0012766167133931357
625 511 -0.0019645743395339393
625 512 -0.0088220161406350542
625 513 -0.00050581070326559526
625 568 -0.0010299634737445326
625 569 0.0073013887864448769
625 570 0.00015774220923118901
625 571 -0.0054187242404434306
625 572 -0.0084172793502298501
625 573 0.0006022659100109256
625 625 0.098223580944908295
626 508 0.0053191919897710854
626 509 -0.030751758236061938
626 510 0.00090782326237309004
626 511 -0.0088220161406350542
626 512 -0.010776644033278757
626 513 0.0018918132484682705
626 568 0.0073013887864448769
626 569 -0.008295515919012517
626 570 -0.002222327358674166
626 571 -0.0084172793502298501
626 572 -0.021390266603645514
626 573 0.0024556926217334054
626 625 0.0050220045713867409
626 626 0.098717572601642462
627 508 0.00034924191043043506
627 509 -0.0014997020404444714
627 510 -0.010106805524525692
627 511 -0.0021084046191967394
627 512 -0.00051364097112881711
627 513 0.0021024030010847474
627 568 -0.0014580739242500661
627 569 0.00018366557194219712
627 570 0.0036381217816082397
627 571 0.0021902732002499954
627 572 0.0048614567981683779
627 573 -0.0042991185195787813
627 625 0.0068988488531028253
627 626 -0.0028833016386558864
627 627 0.084260290162884111
628 490 -0.00075916482746201134
628 491 0.0074748287928212732
628 492 -0.00098441107011602055
628 493 -0.00015815327065232441
628 494 -0.0073886817068534857
628 495 0.0012136822576053708
628 586 -0.01065671489667511
628 587 0.010765665758765232
628 588 0.0021380855755469951
628 589 -0.011001629863678562
628 590 -0.012598944776930607
628 591 -0.0034188289731439522
628 628 0.10724080873593937
629 490 0.0074748287928212732
629 491 -0.0086794524133051564
629 492 0.0013666664928712023
629 493 -0.0073886817068534866
629 494 -0.0078523591691907393
629 495 -0.0025472758782509883
629 586 0.010765665758765232
629 587 -0.013965925336083143
629 588 -0.0038699168590728755
629 589 -0.012598944776930607
629 590 -0.017575206646524254
629 591 -0.0066238288602594748
629 628 0.0011994452733730377
629 629 0.097829682544473981
630 490 0.0006257503717822415
630 491 -0.001042742931066357
630 492 0.0031845270646029492
630 493 -0.00037404635242350992
630 494 -0.0049561767736797909
630 495 0.0040162693397177013
630 586 0.0005203019972937113
630 587 -0.0014374990162871614
630 588 -0.0030360530628930006
630 589 -0.0017756247607039241
630 590 -0.0042237677990981746
630 591 -0.0050121064457117259
630 628 0.011056181955349685
630 629 0.011515859120330282
630 630 0.08750538762710823
631 493 -0.0099430939495054032
631 494 0.012027879356415604
631 495 -0.0048396761063210425
631 496 -0.0087280982852949267
631 497 -0.012122470495852277
631 498 0.004566081258063499
631 583 -0.00099287657426592383
631 584 0.008456541328989901
631 585 -0.00055387598715594174
631 586 -0.0059788090177787983
631 587 -0.0087399214834186188
631 588 0.00071880819199173342
631 628 -0.033280997050498598
631 629 -0.0064454893260002966
631 630 -0.0092067278330177343
631 631 0.11162560460483748
632 493 0.012027879356415604
632 494 -0.026317592122978451
632 495 0.0095140603566496278
632 496 -0.012122470495852279
632 497 -0.022038941378417415
632 498 0.0081023948613689091
632 583 0.0084565413289898993
632 584 -0.010090254820199426
632 585 -0.0020337252666017555
632 586 -0.0087399214834186206
632 587 -0.023758743304963165
632 588 0.0036097459419210912
632 628 -0.0064454893260002975
632 629 -0.012569157336670975
632 630 -0.0016730728421320924
632 631 0.0015154987357068289
632 632 0.11759403788783541
633 493 -0.0031120132792090381
633 494 0.0070684831611878768
633 495 -0.0089099263839987827
633 496 0.0028697730452035032
633 497 0.0057156989032510408
633 498 -0.0068399493129660642
633 583 -0.0021109334286342368
633 584 0.00036231905429237122
633 585 0.0026383100863931926
633 586 0.0022750825077578101
633 587 0.0060487862336373243
633 588 -0.0055700407306212233
633 628 -0.0059533621786794447
633 629 -0.0016824212049083519
633 630 -0.012889419449933191
633 631 0.00085077378752574685
633 632 -0.015928684201671213
633 633 0.10111843276813161
634 514 -0.0010232071679134624
634 515 0.0072579485791504118
634 516 -0.0020650984516482783
634 517 -0.0011095957126464042
634 518 -0.0072487237548440678
634 519 0.0020685382504361527
634 562 -0.00086833231539699821
634 563 0.0072138376180287487
634 564 -0.00047412607089949944
634 565 -0.0069276950249130415
634 566 -0.0069394807506305157
634 567 0.00037669245480167601
634 634 0.097069278183767219
635 514 0.0072579485791504127
635 515 -0.0081352564967474041
635 516 0.00047463784297438222
635 517 -0.0072487237548440686
635 518 -0.0085396072210350196
635 519 0.00051627268561032515
635 562 0.0072138376180287496
635 563 -0.0083301691182209123
635 564 -0.0019737329812255133
635 565 -0.0069394807506305157
635 566 -0.025053196089510017
635 567 0.0016481854431478491
635 634 -0.0038814735139915237
635 635 0.088433152946252591
636 514 -0.00045484158336158115
636 515 -0.0019347353026162625
636 516 0.0039997311489024575
636 517 0.00046389944311734364
636 518 -0.0019277190709326146
636 519 0.0038972866548891098
636 562 -0.0020848426166790437
636 563 0.00047134014971102493
636 564 0.0040878711132301959
636 565 0.0019811994278929215
636 566 0.0040581063054749567
636 567 -0.0064256239520538421
636 634 0.0039357946073885468
636 635 0.0032310083786400148
636 636 0.08303093392646918
637 517 -0.0058813303785434385
637 518 0.0074152371161630461
637 519 -0.0021557640023089669
637 520 -0.0060636252724886493
637 521 -0.0092673284797613886
637 522 0.0014811871504551558
637 559 -0.0060380894975387003
637 560 0.00746931714500426
637 561 -0.00064381684687321128
637 562 -0.00097163495425420915
637 563 -0.0073107180385461306
637 564 0.00045432144385693595
637 634 -0.028949416911564337
637 635 -0.0036222472818132519
637 636 -0.0070028352114797831
637 637 0.10212054938786772
638 517 0.0074152371161630443
638 518 -0.021360783078820417
638 519 0.005523996023333257
638 520 -0.0092673284797613886
638 521 -0.022873923645801552
638 522 0.0038578743535068296
638 559 0.00746931714500426
638 560 -0.022482077797668965
638 561 0.0030595684328118019
638 562 -0.0073107180385461306
638 563 -0.0077869667052143376
638 564 -0.0019764183856704532
638 634 -0.0036222472818132523
638 635 -0.005669344383668444
638 636 -0.0014227133060853703
638 637 0.0017904707438108547
638 638 0.10654242367698581
639 517 -0.00054678311940150747
639 518 0.0031351034387573314
639 519 -0.0050255693566952147
639 520 -0.00012906971783154062
639 521 0.0014595551914051705
639 522 -0.004216610598891374
639 559 -0.0022483238199644557
639 560 0.0054573398781769976
639 561 -0.0055213243161061267
639 562 0.0020956777223565663
639 563 0.00041439563782122446
639 564 0.004167696724871754
639 634 -0.0037880713701018407
639 635 -0.0014221655893489073
639 636 -0.0064724983230109358
639 637 -0.0026327243559569734
639 638 -0.0097288899886108227
639 639 0.091814589579608946
640 499 -0.0077088803836201309
640 500 0.007835208398659893
640 501 -0.0011390831038765794
640 502 -0.0064623715284260769
640 503 -0.0091555731266512071
640 504 0.00053851568835817086
640 577 -0.0007038199431158936
640 578 0.0083327533658075666
640 579 -0.00086228290171795272
640 580 -0.0065779530924317091
640 581 -0.008632706614679098
640 582 0.00084747798219220226
640 640 0.10349322933915311
641 499 0.007835208398659893
641 500 -0.025849589817060183
641 501 0.0024131366764219798
641 502 -0.0091555731266512071
641 503 -0.022394402385805971
641 504 0.0025118464329703721
641 577 0.0083327533658075666
641 578 -0.010471412083742044
641 579 -0.0015793571128906044
641 580 -0.0086327066146790997
641 581 -0.023922881536365969
641 582 0.0034478260678370985
641 640 0.001136925695195923
641 641 0.11376516855040235
642 499 0.00052997065235659479
642 500 -4.6635560250001505e-06
642 501 -0.0060385604827971921
642 502 -0.0011441112089698394
642 503 9.9806457498281256e-05
642 504 -0.0037843685451637091
642 577 -0.0023815784783181478
642 578 0.0008455606386197044
642 579 0.0025901976018426307
642 580 0.0024403468372622833
642 581 0.0058216726542835934
642 582 -0.0059930375652647591
642 640 0.00079540617917874066
642 641 -0.004106852049220038
642 642 0.090862990603881449
643 502 -0.001061694312915164
643 503 0.0077589132040504927
643 504 -0.00015763873183377184
643 505 -0.0010418662904734958
643 506 -0.0077794164643691099
643 507 0.00010001238513644099
643 574 -0.007818458202503006
643 575 0.0090121076726543195
643 576 -0.00087269758939235488
643 577 -0.002283575574940975
643 578 -0.0089603831660635541
643 579 0.00083860357236491051
643 640 -0.031516133545144522
643 641 0.0051959386556459835
643 642 0.0040314608937891787
643 643 0.093833719726808415
644 502 0.0077589132040504927
644 503 -0.0091718916156112475
644 504 -0.0018943255093494011
644 505 -0.0077794164643691099
644 506 -0.0091010049860854245
644 507 -0.0011218613337230982
644 574 0.0090121076726543212
644 575 -0.025520165402897942
644 576 0.0042988235724101837
644 577 -0.0089603831660635559
644 578 -0.010326894832371203
644 579 -0.0015958544497957391
644 640 0.0051959386556459843
644 641 -0.008681876075204497
644 642 -0.0010649515534684889
644 643 -0.0012527244892431809
644 644 0.089886975326625831
645 502 0.0014318166934389745
645 503 -0.004295910974729227
645 504 0.002198411465415048
645 505 -0.0015034460636378648
645 506 -0.0035203866768324602
645 507 0.0023788361846476861
645 574 -0.0025311617519213044
645 575 0.0067413025615200295
645 576 -0.0070016542970108529
645 577 0.0025000156958046287
645 578 0.00079793691695430758
645 579 0.0022968820330603506
645 640 0.0072933835050924354
645 641 -0.0011089051994689735
645 642 -0.0086287144391127661
645 643 -0.00077664114641680555
645 644 0.0040050943523979605
645 645 0.08181410991586284
646 487 -0.0011627398659813657
646 488 0.0072197805459900573
646 489 0.0014543066787184138
646 490 -0.0084184260985790526
646 491 -0.0055482259881438536
646 492 6.8229328116656187e-05
646 589 -0.011364058138155216
646 590 0.011138131214149525
646 591 0.001571901445276976
646 592 -0.019783091095174003
646 593 -0.0095960957623393642
646 594 0.0010829775524337159
646 616 -0.0149736261192843
646 617 -3.2526065174565133e-19
646 618 0.0014324228476579705
646 628 -0.035544281262343998
646 629 0.0052523736199859101
646 630 0.00075066328617454299
646 646 0.11184144417196956
647 487 0.0072197805459900564
647 488 -0.009427129027801618
647 489 -0.00041883872223759638
647 490 -0.0055482259881438518
647 491 -0.023894632647110451
647 492 -0.0015504845222939973
647 589 0.011138131214149525
647 590 -0.014690718032567746
647 591 -0.0019597803478246523
647 592 -0.0095960957623393642
647 593 -0.016083663349874856
647 594 0.00056349172610045814
647 616 -2.1684043449710089e-19
647 617 0.0022243417259351669
647 618 -0.0010051300754140011
647 628 0.0052523736199859084
647 629 -0.0076280821446618619
647 630 0.00059696645311064405
647 646 -0.0061667106475949349
647 647 0.092143453380171145
648 487 0.0030420352887472941
648 488 -0.0030305332554750614
648 489 0.0031018524635144538
648 490 -0.0016662207752582829
648 491 -0.0039364926012281122
648 492 -0.0070030534453556321
648 589 4.1694679221202825e-05
648 590 0.00042622773110946252
648 591 -0.0033602275341747525
648 592 0.0027007611306870015
648 593 0.0031516693119810128
648 594 -0.0080452901802825199
648 616 0.0046970797170886817
648 617 -0.0010051300754140013
648 618 0.0027861422866565259
648 628 -0.002454848902107622
648 629 0.00062048340046755562
648 630 -0.0078009476690925313
648 646 -0.012061406284643411
648 647 0.0054498016997627519
648 648 0.091090931611284121
649 526 -0.0018196067368454493
649 527 0.0086773116418862872
649 528 0.00056471779065983769
649 529 -0.0065636780034333837
649 530 -0.0085453153085883523
649 531 -0.0005215669729522691
649 550 -0.0021026525480914559
649 551 0.0086697196524854504
649 552 0.0024478213210887357
649 553 -0.0017046365105895735
649 554 -0.0085975397064455249
649 555 -0.0024390836743380436
649 622 -0.034105763032905932
649 623 -0.0041876342414001837
649 624 0.0041021514536715162
649 649 0.098765753363945871
650 526 0.0086773116418862872
650 527 -0.010571052748512198
650 528 0.0017439526664860228
650 529 -0.0085453153085883523
650 530 -0.024229288866155173
650 531 -0.0035114625324134049
650 550 0.0086697196524854504
650 551 -0.011104964004241104
650 552 -0.0010440041663256103
650 553 -0.0085975397064455249
650 554 -0.010439026933661139
650 555 -0.00075848392715271865
650 622 -0.0041876342414001854
650 623 -0.0063619299744669755
650 624 0.0014764189753409302
650 649 0.00013666382314208946
650 650 0.087221131204760313
651 526 0.0021722686637657561
651 527 -0.00071115364830159769
651 528 0.0023667536283604896
651 529 -0.0021160345253907948
651 530 -0.0060014787866286522
651 531 -0.0057061980136681283
651 550 0.00082508567601250436
651 551 0.0014452337198350093
651 552 0.0022341946342516266
651 553 -0.0008358562758304152
651 554 0.0016994894738602061
651 555 0.0025969919489311172
651 622 0.0073193546511862752
651 623 0.0014771973433955598
651 624 -0.0080106705104240027
651 649 -7.5063746449432277e-05
651 650 0.00049088730925269872
651 651 0.078733061273254717
652 529 -0.001829921499582584
652 530 0.008654557813632436
652 531 0.00049895692454834549
652 532 -0.010543476552698626
652 533 -0.0047436725337360857
652 534 0.0008949537569277325
652 547 -0.0025027646576082892
652 548 0.008587859307027202
652 549 -0.00032022828249429779
652 550 -0.010540349977287148
652 551 -0.0049925323202001243
652 552 -0.00090855465023144009
652 619 -0.029123193020450428
652 620 0.0025563326742125965
652 621 0.0043015208319559604
652 649 -0.034047450054171279
652 650 0.0039665060118315668
652 651 -0.0070996511188139537
652 652 0.10773791090980975
653 529 0.0086545578136324342
653 530 -0.0098147441547247558
653 531 0.0021265917371683352
653 532 -0.004743672533736084
653 533 -0.03318326865969573
653 534 0.0013766869908939927
653 547 0.008587859307027202
653 548 -0.012524461806439052
653 549 -0.0020816855704499596
653 550 -0.0049925323202001251
653 551 -0.032978986891077353
653 552 -0.001869762609215668
653 619 0.0025563326742125969
653 620 -0.0028486795521156876
653 621 -0.00052984284476830044
653 649 0.0039665060118315668
653 650 -0.0061453836307513677
653 651 0.001550569733510224
653 652 -0.013784347743667016
653 653 0.11654931781113365
654 529 0.0021321163763229024
654 530 -0.0002780024576776259
654 531 0.0026926207095156998
654 532 -0.00068307464089643812
654 533 -0.0013175538838598796
654 534 -0.010231305576444177
654 547 -0.0019529781562836732
654 548 0.00060968821807860991
654 549 0.0021256418069236804
654 550 0.0006787684891138003
654 551 0.00055051486528358892
654 552 -0.010759818867051999
654 619 0.001081038240836163
654 620 -0.00054552612442159646
654 621 -0.0040716522499272701
654 649 -0.0038888728472004064
654 650 0.0015534368197355269
654 651 -0.007694185356608897
654 652 0.0031653917960182574
654 653 -0.00025920866706887554
654 654 0.095383317485781938
655 505 -0.0056575559839853557
655 506 0.0096748991077634395
655 507 -0.001210122691559998
655 508 -0.00063602139346272796
655 509 -0.0071408022091766811
655 510 0.0020968223844190963
655 571 -0.0074050225632338396
655 572 0.0089700844960691264
655 573 -0.00070187418196400008
655 574 -0.00095852750896322219
655 575 -0.0084839129078994081
655 576 0.00082364141768015387
655 625 -0.032958134305390234
655 626 -0.0044251953373043969
655 627 -0.0037132357061771355
655 643 -0.030917886720913945
655 644 -0.0039477979412410645
655 645 -0.0064228237589068283
655 655 0.097893425531737063
656 505 0.0096748991077634412
656 506 -0.018206142679839617
656 507 0.0039415930984102593
656 508 -0.0071408022091766811
656 509 -0.0080233918456438999
656 510 0.00050388936552334606
656 571 0.0089700844960691264
656 572 -0.024713352366553178
656 573 0.0036089657336447643
656 574 -0.0084839129078994081
656 575 -0.010248946534363123
656 576 -0.0016577352473847785
656 625 -0.0044251953373043969
656 626 -0.007001177617491609
656 627 -0.00098665413372164097
656 643 -0.0039477979412410637
656 644 -0.006399542372134125
656 645 -0.00073035557675180237
656 655 0.0060727964721538404
656 656 0.095441373046262407
657 505 0.00048206543978902817
657 506 0.0015429475412065189
657 507 -0.0019117525188222747
657 508 0.00051554903749589085
657 509 -0.0019036596452005452
657 510 0.0041313824363236017
657 571 -0.0023714683837532582
657 572 0.006024308842998434
657 573 -0.0063445212872181838
657 574 0.0023498633357435269
657 575 0.00074037159879968679
657 576 0.0025375138085099347
657 625 -0.0069316457555895338
657 626 -0.00098611542270236495
657 627 -0.0081723800034201842
657 643 -0.003171956210194365
657 644 -0.00073814967538158064
657 645 -0.006939807045283887
657 655 0.0096714917491278283
657 656 -0.00063600836049273828
657 657 0.083754939793477312
658 496 -0.00072416242978006937
658 497 0.0082033139461680487
658 498 -0.0013671198030410308
658 499 -0.0012301846975197998
658 500 -0.0083642023979279712
658 501 0.0013769789490370784
658 580 -0.0080188517785289258
658 581 0.0092804751820630676
658 582 -0.00073861138978012172
658 583 -0.0022300384177107347
658 584 -0.0088228568329901617
658 585 0.00061963626332566272
658 631 -0.034553604418912441
658 632 0.004509190891652198
658 633 0.0041815616889559776
658 640 -0.033149157058610282
658 641 -0.0042340980072099778
658 642 -0.003594818663391263
658 658 0.097999465700346108
659 496 0.0082033139461680504
659 497 -0.0094890533718718396
659 498 -0.00041921872895125424
659 499 -0.008364202397927973
659 500 -0.009644981524662392
659 501 -0.00015922599897002143
659 580 0.0092804751820630676
659 581 -0.025296968064322557
659 582 0.0036516584336494097
659 583 -0.0088228568329901617
659 584 -0.010799507938177286
659 585 -0.0016091351533057616
659 631 0.0045091908916521989
659 632 -0.0074018265897232618
659 633 -0.001223093883698907
659 640 -0.0042340980072099769
659 641 -0.0065067479275586083
659 642 -0.0011171662330547213
659 658 -0.00051571171300512485
659 659 0.087578728012034063
660 496 0.00022591287886909858
660 497 -0.0028184635920629527
660 498 0.002819474662536162
660 499 -0.00024856220941534262
660 500 -0.0025620639844416322
660 501 0.0026391260657305723
660 580 -0.0023970073742057823
660 581 0.0060610333228665377
660 582 -0.006606746911652606
660 583 0.0022285260553437389
660 584 0.00077723193376771677
660 585 0.0019629990739165053
660 631 0.0074654988318340601
660 632 -0.0012296307874444241
660 633 -0.008645063656726593
660 640 -0.0067967411373194668
660 641 -0.001104288457016502
660 642 -0.0077973110288688747
660 658 -0.00056807277843305649
660 659 0.0014054072748932022
660 660 0.078754597425133993
661 511 -0.0018842792142135275
661 512 0.008800549189464435
661 513 0.00049175602274902346
661 514 -0.0095727403008759506
661 515 -0.0050402202020344653
661 516 0.0011423946457996726
661 565 -0.011891939184526377
661 566 0.010928667295339709
661 567 0.0034200380030943497
661 568 -0.0086622848321233556
661 569 -0.0099207902821683291
661 570 -0.003819629904665636
661 625 -0.02842782125841236
661 626 0.00040444156699705452
661 627 -0.0020600037776758685
661 634 -0.035349195041343491
661 635 0.0051946964836608427
661 636 0.0062747011399761164
661 661 0.10982589690063183
662 511 0.0088005491894644367
662 512 -0.010699759430344681
662 513 0.001910230107563784
662 514 -0.0050402202020344671
662 515 -0.030617403962201455
662 516 0.0010379137652875878
662 565 0.010928667295339707
662 566 -0.014554278357316215
662 567 -0.0043134628693190383
662 568 -0.0099207902821683291
662 569 -0.013522582164459208
662 570 -0.0044324408819653776
662 625 0.00040444156699705549
662 626 -0.0020089904093894551
662 627 -0.00019948163247152892
662 634 0.0051946964836608409
662 635 -0.0082228948654640716
662 636 -0.00065302357782947977
662 661 -0.0065251291521147099
662 662 0.097509677001323708
663 511 0.0020947257476364922
663 512 -0.00049426546661441347
663 513 0.0021504328798487571
663 514 -0.00044298272633129217
663 515 -0.0013833471041142904
663 516 -0.0099155428638407223
663 565 0.0017915494611626757
663 566 -0.0018904408735345691
663 567 -0.0041779195453335409
663 568 -0.0022072442764547516
663 569 -0.0020290266821807799
663 570 -0.0024308563793582127
663 625 0.0011538621363867715
663 626 -0.00020124275885411883
663 627 -0.0030697136205179261
663 634 0.0030593457868777628
663 635 -0.00065194220343588205
663 636 -0.0091041259329572889
663 661 -0.006769630594744178
663 662 0.0043102405168543197
663 663 0.087355225780696377
664 520 -0.0015848551056415253
664 521 0.0082093708677908987
664 522 -0.00081748628346748763
664 523 -0.0014972221375186131
664 524 -0.0081763552482918035
664 525 0.00080770149765187725
664 556 -0.0090632655573459793
664 557 0.010299844289730041
664 558 0.0026691518095169984
664 559 -0.0097384264966807552
664 560 -0.010452248091955177
664 561 -0.0026181865531637238
664 622 -0.035195549773261656
664 623 -0.0046755281000720652
664 624 -0.0039640873363829508
664 637 -0.034317271474155406
664 638 0.0043183912118178753
664 639 0.0036552348853867048
664 664 0.10496040826571332
665 520 0.0082093708677908987
665 521 -0.009382363027632859
665 522 -0.00069749497510680466
665 523 -0.0081763552482918035
665 524 -0.0093771935597524048
665 525 -0.00093217216141014913
665 556 0.010299844289730039
665 557 -0.01282265200378575
665 558 -0.0041235200630409963
665 559 -0.010452248091955179
665 560 -0.013022450299070967
665 561 -0.0039575685690044259
665 622 -0.0046755281000720661
665 623 -0.008340979416163798
665 624 -0.00098473370411331649
665 637 0.0043183912118178744
665 638 -0.0075174299855459521
665 639 -0.00089367422492550304
665 664 0.00054081271416650274
665 665 0.082813399099092536
666 520 0.00081486009332996999
666 521 -0.0030487398551309075
666 522 0.0023458608959620745
666 523 -0.00082156147221452915
666 524 -0.0032856858453770769
666 525 0.0023683868751289134
666 556 0.0010480776179763146
666 557 -0.0017719278179898204
666 558 -0.0024523409584470751
666 559 -0.00096913922557437531
666 560 -0.001604039585718032
666 561 -0.0026245546746107677
666 622 -0.0072454810407697563
666 623 -0.00098701780737560818
666 624 -0.00911268078926223
666 637 0.006905572046793795
666 638 -0.00089175278600975034
666 639 -0.0084065498913706814
666 664 0.00027560038563765894
666 665 0.0086911869593128792
666 666 0.080860164447092459
667 151 -0.0031707969609936315
667 152 -0.0018153981515698747
667 153 0.0036730764024995714
667 154 0.0054807611231966098
667 155 0.0032051282051282037
667 156 -8.6657576464422388e-05
667 157 -0.0012918676060049931
667 158 -0.0011496447474149058
667 159 9.8607963868452487e-05
667 160 -0.0014059935120508996
667 161 -0.001007269317147972
667 162 -0.0010073776851229779
667 355 -0.0084700909837820935
667 356 -0.00569103403633837
667 357 -0.013597805197443122
667 601 0.00028329302953541578
667 602 -0.0016091400820146572
667 603 0.01165366675876774
667 667 0.084082142969908846
668 151 -0.003417962254133977
668 152 -0.0071030812209070858
668 153 0.0098670882899390827
668 154 0.0048076923076923071
668 155 0.00039845603113550471
668 156 -0.0064531777013653001
668 157 0.00045291935514919708
668 158 -0.0099207842864388381
668 159 0.01052683441139143
668 160 -0.0026098334197120748
668 161 -0.0080456720852251761
668 162 -0.009129553336124533
668 355 -0.00569103403633837
668 356 0.00025606575168761133
668 357 -0.0060618919811977114
668 601 -0.0016091400820146577
668 602 0.014797846872052399
668 603 0.00022287681951396217
668 667 0.0041295070602293191
668 668 0.10922967092424168
669 151 0.0059664215864911919
669 152 0.0098670882899390827
669 153 -0.01620937601816904
669 154 0.0019165475517407059
669 155 -0.0064531777013653001
669 156 -0.0036877089830868242
669 157 -0.0019045971643366754
669 158 0.01052683441139143
669 159 -0.010026519664525144
669 160 -0.0033007228691145974
669 161 -0.009129553336124533
669 162 -0.012548351007629913
669 355 -0.013597805197443122
669 356 -0.0060618919811977106
669 357 -0.011600417474378939
669 601 0.011653666758767738
669 602 0.00022287681951396201
669 603 -0.0029310362825857835
669 667 -0.0028813751608856922
669 668 0.0037022938435072464
669 669 0.079786800164229246
670 148 -0.0012513369238415246
670 149 0.0022746295737637347
670 150 -0.0019510831492541819
670 151 -0.001836046061936618
670 152 -0.00084551613057327413
670 153 -0.00057698861196512794
670 160 -0.000861587353383366
670 161 0.00087858965932805573
670 162 -0.00053601126064260502
670 163 -0.001357105481756004
670 164 -7.3575637977115458e-05
670 165 -0.00065765093212340501
670 358 0.014021647603326765
670 359 -0.0022349964219810841
670 360 -0.0076064264594670802
670 598 0.002340490547022598
670 599 0.00074538428974483444
670 600 0.010585734137417592
670 667 -0.0063774346597067454
670 668 -0.0063377576800821307
670 669 -0.00066992014025623312
670 670 0.089430360672084402
671 148 0.00067206547119963217
671 149 -0.010798616880231478
671 150 0.0065061386228680539
671 151 0.00075704797199082859
671 152 -0.012082033756194701
671 153 -0.0072949189767483394
671 160 0.0024811537618921594
671 161 -0.0075186133229645895
671 162 0.0091010620335877125
671 163 -0.0016761397405412181
671 164 -0.0085880514053002094
671 165 -0.010436839852568809
671 358 -0.0022349964219810824
671 359 0.033382971849188633
671 360 0.0012335768563730928
671 598 0.00074538428974483466
671 599 0.014835264744416808
671 600 0.00081988550904980428
671 667 -0.0031326294749539265
671 668 -0.030028155670669826
671 669 -0.002673177744130068
671 670 0.0010653254789530216
671 671 0.12082510398991679
672 148 5.212197895094579e-05
672 149 0.0065061386228680521
672 150 -0.0080112853629505862
672 151 0.0016396812566913629
672 152 -0.0072949189767483403
672 153 -0.010683252161531896
672 160 -0.002752681129299096
672 161 0.0091010620335877125
672 162 -0.011585722916106277
672 163 -0.0026608560603285326
672 164 -0.010436839852568809
672 165 -0.010188568352176438
672 358 -0.0076064264594670802
672 359 0.0012335768563730936
672 360 0.0092424127028250987
672 598 0.010585734137417594
672 599 0.00081988550904980384
672 600 -0.0030195592858025138
672 667 -0.00066992014025623291
672 668 -0.0026731777441300676
672 669 -0.0062676248113916477
672 670 0.0043621177841777709
672 671 -0.00252787813287275
672 672 0.080945391866633243
673 7 0.0029245554688859354
673 8 0.00090538653855775936
673 9 0.00073239062075128162
673 19 0.0028262094628261742
673 20 0.00084103278823326525
673 21 -0.00080772012557725795
673 148 -0.005011337766928697
673 149 0.0020815728344480895
673 150 0.0061711972846554457
673 163 -0.004195853571180551
673 164 -0.00012067938038844172
673 165 -0.0011042973217492503
673 289 -0.0064102564102564048
673 290 -0.00641025641025641
673 291 0
673 424 -0.01427777184699227
673 425 0.0011688808861540396
673 426 -0.017860514069547188
673 613 -0.0028740503443440372
673 614 0.001426501700242613
673 615 0.012109433189274512
673 670 -0.011899506507588377
673 671 0.0039855273016665962
673 672 0.00025316562310366732
673 673 0.087578894303130081
674 7 -0.00069717756400634314
674 8 -0.0050882650439345771
674 9 0.0083571019508397217
674 19 -0.0007615313143308378
674 20 -0.005186611049994341
674 21 -0.0083599177073309938
674 148 0.003684136937012192
674 149 -0.0080390225787673499
674 150 -0.0094365360291283167
674 163 0.0014818847221756606
674 164 -0.013028655654966567
674 165 0.010653879144776786
674 289 -0.0096153846153846159
674 290 -0.022435897435897426
674 291 4.3368086899420177e-19
674 424 0.0011688808861540405
674 425 0.0035659822905725674
674 426 0.0041488592974690966
674 613 0.0014265017002426136
674 614 0.012251565371122378
674 615 -0.0038141595981577084
674 670 0.0071906555067948021
674 671 -0.036107761288885494
674 672 0.0058792636714920061
674 673 -0.0072456032943103953
674 674 0.10513844200372419
675 7 0.0023349547233153835
675 8 0.0083571019508397199
675 9 -0.0043590664363515339
675 19 -0.0024102842281413599
675 20 -0.0083599177073309938
675 21 -0.0043493318307759789
675 148 0.0086855444083561335
675 149 -0.0094365360291283167
675 150 -0.017900245333649548
675 163 -0.0036186444454499381
675 164 0.010653879144776786
675 165 -0.016688856563540348
675 289 0
675 290 4.3368086899420177e-19
675 291 -0.0064102564102564048
675 424 -0.017860514069547188
675 425 0.0041488592974690975
675 426 -0.011739938188818418
675 613 0.012109433189274512
675 614 -0.0038141595981577088
675 615 -0.0058744747670348525
675 670 0.00025316562310366726
675 671 0.005879263671492007
675 672 -0.013385471850744705
675 673 -0.0022763684583255268
675 674 -0.0059577657086138242
675 675 0.084111536564416264
676 4 0.002718709288806985
676 5 -0.0008012820512820467
676 6 0.00073707770919695641
676 16 0.002791738203448513
676 17 -0.00083539766767648505
676 18 -0.00074936559950940381
676 154 -0.01218765255236832
676 155 -0.0032051282051282028
676 156 0.0092751127109463108
676 157 -0.0061751863491373449
676 158 0.0016195794736165606
676 159 0.00061554095373413933
676 292 -0.0064102564102564048
676 293 0.00641025641025641
676 294 0
676 355 0.012372499928726837
676 356 0.0085115215298669604
676 357 -0.0067965179134817141
676 421 -0.011020548144759777
676 422 -0.0044116582692825205
676 423 -0.015804698531264892
676 610 -0.0039862247337716034
676 611 -0.00095085977300701384
676 612 0.012573501677756713
676 667 -0.0099405885313718599
676 668 -0.00058747354024364998
676 669 0.00028054098894260307
676 676 0.095190934710213601
677 4 0.00080128205128205635
677 5 -0.0052941112240135289
677 6 -0.0084776658805466344
677 16 0.00076716643488761768
677 17 -0.0052210823093719995
677 18 0.0084239082124644218
677 154 -0.0048076923076923045
677 155 -0.0071053474603072157
677 156 0.0064531777013652975
677 157 1.7015371052458004e-05
677 158 -0.017980757679525637
677 159 -0.010749823860843433
677 292 0.0096153846153846142
677 293 -0.022435897435897422
677 294 0
677 355 0.0085115215298669621
677 356 0.0061820001545698881
677 357 0.0076925915712729633
677 421 -0.0044116582692825196
677 422 -0.0015672920692056083
677 423 -0.0056472463957541828
677 610 -0.00095085977300701438
677 611 0.015711044051989937
677 612 0.0024154271835445792
677 667 -0.0037926017453718554
677 668 -0.03613193390544716
677 669 -0.0044152322792363197
677 676 0.0036008072257895235
677 677 0.10977814749645007
678 4 0.0023396418117610589
678 5 -0.0084776658805466327
678 6 -0.0045069533866114392
678 16 -0.0023519297020735061
678 17 0.0084239082124644218
678 18 -0.0044389880755355063
678 154 0.011866135149982126
678 155 0.0064531777013652983
678 156 -0.019786411019014166
678 157 -0.0019754814853016776
678 158 -0.010749823860843433
678 159 -0.018093679518624485
678 292 0
678 293 0
678 294 -0.0064102564102564048
678 355 -0.0067965179134817141
678 356 0.0076925915712729642
678 357 0.0085277837638563659
678 421 -0.015804698531264889
678 422 -0.0056472463957541819
678 423 -0.011279533341230042
678 610 0.012573501677756714
678 611 0.0024154271835445792
678 612 -0.0043181896831127001
678 667 0.0002805409889426035
678 668 -0.0044152322792363197
678 669 -0.0091815798737000937
678 676 -0.0079434116858158269
678 677 0.0082490238922608705
678 678 0.08306845614499081
679 100 -0.014930901311298211
679 101 0.00075525142232214294
679 102 -0.013620290152727258
679 103 -0.0090080027288777162
679 104 -0.0022487263926375396
679 105 0.0096257683752689026
679 265 -0.013123230283718777
679 266 -0.001048353076858436
679 267 -0.010132401826075603
679 268 -0.0035291671799473224
679 269 0.0047070194871348392
679 270 0.0081792044950873746
679 403 0.017928086815937286
679 404 0.00050635587072820286
679 405 0.0040047072079241472
679 553 0.013044014387240019
679 554 0.0019685912795812405
679 555 -0.003614668109069282
679 679 0.12252081749296764
680 100 -0.0008473126802419599
680 101 -0.0050715485421465086
680 102 -0.0004260038655597093
680 103 -0.00064616229007343742
680 104 -0.001073593934299131
680 105 -0.001115629479261042
680 265 0.00055421102570566761
680 266 -0.0037299869201437661
680 267 0.0021149248860562924
680 268 0.0031044553845707376
680 269 -0.001301221997180603
680 270 -0.0027817562640337521
680 403 0.00050635587072820254
680 404 0.00017573876640362415
680 405 -0.011813470835396663
680 553 0.0019685912795812405
680 554 -0.005586753244384633
680 555 0.013395935631251642
680 679 -0.015842326308283711
680 680 0.088821496366136121
681 100 -0.013620290152727255
681 101 0.001977842288286446
681 102 -0.018464895035017137
681 103 0.0096257683752689026
681 104 0.0012882166745851117
681 105 -0.012156613369863631
681 265 -0.010132401826075603
681 266 -0.00028892126778986427
681 267 -0.013485783050754548
681 268 0.0081792044950873746
681 269 -0.0051856024178799053
681 270 -0.013495841840552707
681 403 0.0040047072079241464
681 404 -0.011813470835396661
681 405 -0.00092057848115906791
681 553 -0.0036146681090692815
681 554 0.013395935631251644
681 555 -0.0039709471885713433
681 679 0.0017714162199871934
681 680 8.9905749606885394e-05
681 681 0.085733023476280507
682 109 -0.0081482890371934735
682 110 0.0028780639637977987
682 111 -0.010246813031313834
682 112 -0.0087715643120280934
682 113 -0.0021248567160230491
682 114 0.0094694753123408526
682 256 -0.0046609644975836341
682 257 0.0034538324875833344
682 258 -0.0070888634558533567
682 259 -0.00023288835366033631
682 260 -0.00076196972240791727
682 261 0.0055592744903992155
682 394 0.0154248780991291
682 395 0.001225544224869662
682 396 0.0015988271376385756
682 682 0.087500343997188229
683 109 0.0012754998612336953
683 110 -0.001596456876996725
683 111 0.00063033438014296612
683 112 -0.00052229261345894602
683 113 -0.0008256735644422196
683 114 -0.0012931324938456671
683 256 0.0050563965901474373
683 257 -0.0030255919519638812
683 258 0.0070215519076898374
683 259 -0.0023645338249720198
683 260 0.0047441652525880363
683 261 0.0034016951668927129
683 394 0.0012255442248696622
683 395 0.0030105560571137028
683 396 -0.011628758142963552
683 682 -0.0052427287691261537
683 683 0.093650411959225716
684 109 -0.010246813031313832
684 110 0.0030341805339891216
684 111 -0.013751033095815903
684 112 0.0094694753123408491
684 113 0.001110713660000488
684 114 -0.01192962519927758
684 256 -0.0070888634558533559
684 257 0.0046177057538436816
684 258 -0.011351003997021353
684 259 0.0055592744903992155
684 260 0.0009978490130465572
684 261 -0.0057921628440595592
684 394 0.0015988271376385756
684 395 -0.011628758142963552
684 396 0.0027297860465060448
684 682 0.00016303100978965965
684 683 -0.014545616137081432
684 684 0.073924495053878186
685 118 -0.0035360486559052441
685 119 -0.00081220891838995504
685 120 -0.0056042828824520059
685 121 -0.00031000198019234078
685 122 0.00081211765633594935
685 123 0.0056041919244331564
685 247 -0.0080119913312679952
685 248 -0.004807692307692308
685 249 -0.0077185804084424414
685 250 -0.0015583681573597429
685 251 0.0048076923076923071
685 252 0.007946560358234751
685 571 -0.0064022545213437022
685 572 -0.010271278336809377
685 573 0.0054410858104732441
685 574 0.004694983275621051
685 575 0.010359816060589369
685 576 -0.0056494335016036776
685 685 0.099264798331320278
686 118 -0.0024147730209540565
686 119 -0.0011664293918465494
686 120 -0.0036733327259427643
686 121 0.0024146817589000514
686 122 0.0045191849937599605
686 123 -0.0035702184921248422
686 247 -0.0032051282051282046
686 248 -0.012223320434125216
686 249 -0.0088643764995830938
686 250 0.0032051282051282037
686 251 0.0024922718074756691
686 252 -0.00079054816743101086
686 571 -0.010271278336809377
686 572 -0.019706779404494834
686 573 0.015632783016349214
686 574 0.010359816060589368
686 575 0.0087827960243085819
686 576 0.0063803419663440528
686 685 -0.00093789334347133663
686 686 0.11205980094461529
687 118 -0.0056042828824520042
687 119 -0.0012694865720966086
687 120 -0.014745789263218428
687 121 0.0056041919244331564
687 122 -0.0011663723382786904
687 123 -0.0059141939046254864
687 247 -0.0077185804084424405
687 248 -0.011268222653429246
687 249 -0.023830640556580768
687 250 0.0079465603582347527
687 251 -0.0031943943212771669
687 252 -0.0095049285155944952
687 571 0.0054410858104732441
687 572 0.015632783016349218
687 573 -0.010702797737995264
687 574 -0.005649433501603675
687 575 0.0063803419663440528
687 576 0.013957828571538844
687 685 -0.011125208081190781
687 686 0.023734999783276239
687 687 0.099434221365883341
688 124 -0.0055955658367038644
688 125 -0.0010156810347428046
688 126 -0.0047695751507060803
688 127 -0.00062300598576217029
688 128 0.0022301688048360262
688 129 0.0059162769921787626
688 241 -0.017133078198666218
688 242 0.00037408140230903305
688 243 -0.0092705913449552865
688 244 -0.0012820400607012137
688 245 0.0048076923076923071
688 246 0.0076305628954819599
688 577 0.0077454205656543691
688 578 -0.0058963716835188718
688 579 0.0011462587364309477
688 688 0.095897565964391682
689 124 -0.0026182451373069075
689 125 -0.0060442677233381358
689 126 -0.0063483172457980928
689 127 0.0038327329074001296
689 128 0.0037357560420111713
689 129 -0.0037592294320315887
689 241 0.0019766455048731363
689 242 -0.0058216013859583565
689 243 0.002885028743630425
689 244 0.0032051282051282046
689 245 0.0031434226830277215
689 246 -0.00059334958609936431
689 577 -0.0058963716835188718
689 578 -0.011088245628136029
689 579 0.013720723570590993
689 688 -0.010424906929150879
689 689 0.097900426538919144
690 124 -0.0047695751507060794
690 125 -0.0039444710919519371
690 126 -0.018384986957869796
690 127 0.0059162769921787626
690 128 -0.0013553832781854327
690 129 -0.006539282977940937
690 241 -0.0092705913449552865
690 242 0.00048118258978426887
690 243 -0.014025586005486299
690 244 0.0076305628954819599
690 245 -0.0029971957399455192
690 246 -0.0089126029561831799
690 577 0.0011462587364309488
690 578 0.013720723570590993
690 579 -0.0035225444963815659
690 688 -0.0043565046265450595
690 689 0.011428278613652195
690 690 0.080115230325070785
691 130 -0.0091306783721654457
691 131 0.002253949996253815
691 132 -0.0096617676940927918
691 133 -0.0077676362840130679
691 134 -0.0030393088911547239
691 135 0.010458693372753049
691 235 -0.00020144755362143889
691 236 0.00074759954432587566
691 237 -0.0055285029090937857
691 238 -0.0046234032713628409
691 239 -0.0034629821810181027
691 240 0.0071189220638183618
691 373 0.015053248794562157
691 374 -0.0010587217006925158
691 375 -0.0015339889111705774
691 691 0.08744233433614057
692 130 0.00065138589368971293
692 131 -0.001175463167400284
692 132 -0.0010480120245862205
692 133 -0.0014367447885906214
692 134 -0.0016768438248665632
692 135 0.00090816264810992208
692 235 0.0023501636468899788
692 236 0.004823436471418749
692 237 0.0033717450153198012
692 238 -0.0050655462835822052
692 239 -0.0029771743785841046
692 240 0.0069824484950727263
692 373 -0.001058721700692516
692 374 0.002967719231876392
692 375 -0.012443515434613847
692 691 0.004952705120789009
692 692 0.094914555914998533
693 130 -0.0096617676940927918
693 131 0.001355834129259932
693 132 -0.012243043162748851
693 133 0.010458693372753049
693 134 0.0033120088019560775
693 135 -0.014499818698209772
693 235 -0.0055285029090937857
693 236 0.00096789886147364537
693 237 -0.00572995046271523
693 238 0.0071189220638183618
693 239 0.0045786023412265741
693 240 -0.011523776092102412
693 373 -0.0015339889111705769
693 374 -0.012443515434613845
693 375 0.0036108560981294455
693 691 5.0940274447012232e-05
693 692 -0.015637944835851361
693 693 0.076283493134107455
694 133 -0.00073423672628093837
694 134 -0.00071239714273123897
694 135 -0.0067833465131033888
694 136 -0.0049461819037470581
694 137 0.00042776708689021915
694 138 0.0064807280536531052
694 232 -0.008094949990981282
694 233 -0.0028806487345419216
694 234 -0.010425266246866533
694 235 -0.0063907293535447008
694 236 0.0037203789451505567
694 237 0.009888158475021969
694 586 0.011905368512576335
694 587 -0.0025162893828961528
694 588 -9.6557566166388122e-05
694 691 -0.020995767775407008
694 692 0.0040444827979758966
694 693 -0.002748766073659259
694 694 0.088795253068352759
695 133 -0.0023149612452953417
695 134 0.0042135179711201131
695 135 -0.001476597002781936
695 136 0.0020303311894543218
695 137 -0.0038313139395049906
695 138 -0.0051066727016802014
695 232 -0.0012780846319778178
695 233 -0.0016021549333621276
695 234 -0.00050374072820000932
695 235 0.0021178148425864537
695 236 -0.0019100373689243072
695 237 -0.0024070815761389175
695 586 -0.002516289382896152
695 587 -0.0055688775844908219
695 588 0.013148990383369195
695 691 0.00083935459284769092
695 692 -0.0021737654211583441
695 693 3.5029278168980261e-06
695 694 0.0012411818055020393
695 695 0.08633981013278394
696 133 -0.0067833465131033888
696 134 0.00092724915106422016
696 135 -0.0075175832393843331
696 136 0.0064807280536531026
696 137 -0.0027028265478340483
696 138 -0.018623983346510851
696 232 -0.010425266246866533
696 233 -0.0029075868820461616
696 234 -0.014067140228432072
696 235 0.0098881584750219673
696 236 -0.0048109277299850737
696 237 -0.015245914870557589
696 586 -9.6557566166387472e-05
696 587 0.013148990383369193
696 588 -0.0025020500779724497
696 691 -0.002748766073659259
696 692 3.5029278168978092e-06
696 693 -0.0036902183804494583
696 694 0.0034305426845841758
696 695 0.012051712436351211
696 696 0.082529275617365394
697 94 -0.0092195851239581655
697 95 0.0022975340768989806
697 96 -0.010182111663176533
697 97 -0.013203933851789813
697 98 -0.00087050350863493897
697 99 0.010577040812447841
697 271 -0.012097800422545922
697 272 -0.0013178086355173126
697 273 -0.010645951901027731
697 274 -0.012921441898475449
697 275 0.0012142149541522814
697 276 0.010775990484483395
697 409 0.016596936519408932
697 410 0.00028465133287261925
697 411 -0.00017921709671513478
697 547 0.016921182277643429
697 548 -0.001625731345884045
697 549 4.4506721642381523e-05
697 697 0.11307584165134046
698 94 0.00069496997433487952
698 95 -0.001501774692047227
698 96 -7.7263193079047049e-05
698 97 0.00073206059392916354
698 98 -0.0036041034498257474
698 99 -0.0018838021550926763
698 271 0.00028475546704678876
698 272 -0.0029744134631724075
698 273 0.0016317423612147554
698 274 -0.00038834914841182267
698 275 -0.0032792854127100244
698 276 0.00092109966366450908
698 409 0.00028465133287261952
698 410 -0.00072214619664146863
698 411 -0.011648625164120331
698 547 -0.0016257313458840445
698 548 -0.0019101013693594614
698 549 0.011528163906261586
698 697 -0.0037194678135275554
698 698 0.091801160247027669
699 94 -0.010182111663176533
699 95 0.0021394066755774429
699 96 -0.012090744002240767
699 97 0.010577040812447841
699 98 0.00052004399875347671
699 99 -0.01448913523629259
699 271 -0.010645951901027731
699 272 -0.00077210379263139824
699 273 -0.014382757196095785
699 274 0.010775990484483394
699 275 -0.0012955702049919824
699 276 -0.013150109758682492
699 409 -0.00017921709671513475
699 410 -0.011648625164120328
699 411 0.0028266052951873085
699 547 4.4506721642381902e-05
699 548 0.011528163906261586
699 549 0.0028681257189774479
699 697 -0.00055690480485837178
699 698 5.2522110334371572e-05
699 699 0.079426700997182992
700 115 -0.0056273721124022891
700 116 -0.0047155035249934699
700 117 -0.008311753456439747
700 118 -0.00030979987563089497
700 119 0.00081362799202071442
700 120 0.0056009595254852482
700 250 -0.0080014997620665856
700 251 -0.0048076923076923054
700 252 -0.0079465603582347492
700 253 -0.0089021429757480518
700 254 0.0026297364375188516
700 255 0.010678136933395954
700 568 0.0039108377897877199
700 569 -0.0030262660850937668
700 570 0.0028071180121019565
700 571 0.0050220477351293081
700 572 0.010396997935999231
700 573 -0.0056082245170862091
700 685 -0.029809888710488022
700 686 -0.0012877670262141597
700 687 0.0055505619954237789
700 700 0.096061690516897544
701 115 -0.006318067627557572
701 116 -0.0044923631724255661
701 117 -0.0073740900699132191
701 118 0.0024161920945848171
701 119 0.0045166599607771151
701 120 -0.003579075466939482
701 250 -0.0032051282051282028
701 251 -0.012052139726901995
701 252 -0.0088248364479536073
701 253 0.0010271723349547491
701 254 -0.0018453892138011797
701 255 -0.00018712650672104313
701 568 -0.0030262660850937663
701 569 -0.0096286374490230694
701 570 0.012572201153131995
701 571 0.010396997935999233
701 572 0.0087075306570842583
701 573 0.0063604633983940012
701 685 0.0019173611789140461
701 686 -0.0071888086140154961
701 687 0.0010799910975882033
701 700 0.0038047731016870798
701 701 0.10935017697188802
702 115 -0.008311753456439747
702 116 -0.0049702439160670669
702 117 -0.013896287594737869
702 118 0.0056009595254852473
702 119 -0.0011752293130933285
702 120 -0.0059107594011161384
702 250 -0.0079465603582347492
702 251 -0.011228682601799763
702 252 -0.023954609202397659
702 253 0.010678136933395954
702 254 -0.0025909726605671955
702 255 -0.014377165364323957
702 568 0.0028071180121019565
702 569 0.012572201153131995
702 570 -0.0053488651004255251
702 571 -0.0056082245170862091
702 572 0.0063604633983939986
702 573 0.014150466154056874
702 685 0.005550561995423778
702 686 0.0010799910975882031
702 687 -0.0085945704101654877
702 700 -0.0072294479109755901
702 701 0.025923050369757668
702 702 0.095823738004964423
703 97 -0.012592674325443851
703 98 0.0013149393566963504
703 99 -0.010618664108387427
703 100 -0.015125613459573467
703 101 -0.00059579690294061052
703 102 0.013678038616221088
703 268 0.0012340549618711041
703 269 -0.00083953488181839702
703 270 -0.004328945497898958
703 271 -0.0032626310020731249
703 272 -0.0024466856767087391
703 273 0.0068915093451607599
703 406 0.017682034680289119
703 407 -0.0018775958977802903
703 408 -0.0035428847796010864
703 679 -0.02570685402526262
703 680 0.00066986907603091628
703 681 -0.0024159484658194527
703 697 -0.014065273699948342
703 698 0.0021627326929279157
703 699 4.7704895589362195e-18
703 703 0.1020046148904043
704 97 -0.00028762474586775146
704 98 -0.003252605337630732
704 99 -0.0012686575030411841
704 100 0.001006767199623492
704 101 -0.0051732390202455574
704 102 -0.00076689447799317147
704 268 0.00076302922074570571
704 269 0.0086481378644478329
704 270 0.0010849544487461565
704 271 -0.004049249779272842
704 272 -3.4825563362560858e-05
704 273 0.0050966231310975085
704 406 -0.0018775958977802912
704 407 -0.0010866186925106778
704 408 -0.011944962218163484
704 679 0.0038749972811591214
704 680 -0.0031184069528411157
704 681 -0.00030775482604451679
704 697 -0.0010423955122002889
704 698 0.0034695122023268585
704 699 0.00012566273986445151
704 703 0.0059540920200190162
704 704 0.087611278436156972
705 97 -0.010618664108387427
705 98 0.0010919520109693181
705 99 -0.013951887986268258
705 100 0.013678038616221088
705 101 0.0016369516758529834
705 102 -0.018581186172814637
705 268 -0.0043289454978989589
705 269 -0.0013188917050999955
705 270 -0.0030948905360278518
705 271 0.0068915093451607599
705 272 0.0027360136170870093
705 273 -0.010981859988529687
705 406 -0.0035428847796010869
705 407 -0.011944962218163484
705 408 -0.0019264451426951811
705 679 -0.0024159484658194527
705 680 -0.00030775482604451895
705 681 -0.0011971832084982635
705 697 4.5536491244391186e-18
705 698 0.00012566273986444956
705 699 0.001218350401193659
705 703 -0.0014526455745975386
705 704 -0.012494579757632194
705 705 0.088932552405839638
706 103 -0.0089720494428213865
706 104 0.0022611975217308564
706 105 -0.0095653085386490661
706 106 -0.019636141102814194
706 107 0.0012221308667905884
706 108 0.011745058807718345
706 262 -0.0080865905223367167
706 263 -0.0028919316339239753
706 264 -0.010408990090032842
706 265 -0.012817741437797896
706 266 0.00096565099159575405
706 267 0.010049353142194841
706 400 0.018418588296209397
706 401 0.0018034445226467034
706 402 -0.0013202461851023945
706 556 0.015164050809773785
706 557 -0.0031364245622553829
706 558 0.0014132312930583292
706 679 -0.010781335539924379
706 680 0.0016378609514776546
706 681 -4.0115480381963664e-18
706 706 0.11379577565654625
707 103 0.00065863341916675322
707 104 -0.0010564511292226002
707 105 -0.0010449076949748961
707 106 0.0028246949693546911
707 107 -0.0076711821928759803
707 108 -0.0029631951804586281
707 262 -0.0012893675313598734
707 263 -0.0015968947430346754
707 264 -0.00051525412590855608
707 265 -0.00063691311096834824
707 266 -0.0035297533913154554
707 267 0.0021557121962468067
707 400 0.0018034445226467034
707 401 -0.0036153918755550121
707 402 -0.011530156341458044
707 556 -0.0031364245622553838
707 557 0.00054214481204870415
707 558 0.011517869876201613
707 679 -0.0015672672536505509
707 680 0.005799526445927199
707 681 -0.00042229740478418195
707 706 0.0062468888463656207
707 707 0.094176419603236042
708 103 -0.0095653085386490679
708 104 0.0013589384588712579
708 105 -0.012094384402987898
708 106 0.011745058807718346
708 107 -0.00055934902661247796
708 108 -0.017112890498812754
708 262 -0.010408990090032842
708 263 -0.0029191002797547081
708 264 -0.014035684451804318
708 265 0.010049353142194841
708 266 -0.00024813395759935028
708 267 -0.013353103505648179
708 400 -0.0013202461851023945
708 401 -0.011530156341458044
708 402 0.0018778148850219873
708 556 0.0014132312930583287
708 557 0.011517869876201613
708 558 0.0021890454732531122
708 679 -3.6862873864507151e-18
708 680 -0.00042229740478418
708 681 0.0020228411764469578
708 706 -0.0019220480793768913
708 707 0.0017016932579178336
708 708 0.080651714894476173
709 136 -0.00026437995446940458
709 137 -0.00076983847040641468
709 138 -0.0055965667107427761
709 139 -0.0052742643325968301
709 140 0.0045719030780071697
709 141 0.0084978282880476472
709 229 -0.0098939036739906609
709 230 -0.0023831452523293342
709 231 -0.011069302317919708
709 232 -0.0080385648103209664
709 233 0.002880914349074672
709 234 0.010553322625308968
709 589 0.016148525910061481
709 590 0.0011027820225618628
709 591 -1.1388416151663483e-05
709 694 -0.021783382820675552
709 695 -0.0019415272810985183
709 696 -0.0023651078154853329
709 709 0.088590290696789947
710 136 -0.0023724025729705165
710 137 0.0046712368700998746
710 138 -0.003413261120606464
710 139 0.0061744671805712727
710 140 -0.0042109861436152168
710 141 -0.0070960369359023296
710 229 -0.00078058114976523182
710 230 -0.002419744487217023
710 231 -0.00032213332716788659
710 232 0.0012783502465105699
710 233 -0.001594057693978684
710 234 -0.00039888084140821773
710 589 0.0011027820225618628
710 590 0.003763369154935576
710 591 0.011915596579532325
710 694 -0.0051466554862267238
710 695 -0.0023834628574731695
710 696 4.9513580229818997e-05
710 709 0.0028716297224471504
710 710 0.088048623581196556
711 136 -0.0055965667107427761
711 137 -0.0010094149667603119
711 138 -0.0058609466652121845
711 139 0.0084978282880476472
711 140 -0.0047354274218918292
711 141 -0.014302603331499075
711 229 -0.011069302317919708
711 230 -0.002682742841178387
711 231 -0.014709304879777372
711 232 0.010553322625308968
711 233 -0.0028027269952543734
711 234 -0.01430900410336855
711 589 -1.1388416151663239e-05
711 590 0.011915596579532325
711 591 0.00070660926987373097
711 694 -0.0023651078154853333
711 695 4.9513580229819647e-05
711 696 -0.0029584801421773665
711 709 0.0014783038615374462
711 710 0.015932887515837477
711 711 0.078536347915336147
712 139 -0.018818258352138392
712 140 -0.00087697217933542092
712 141 -0.01184469466514736
712 142 -0.014052470603057528
712 143 -0.0010084539822396508
712 144 0.012296404722894838
712 226 -0.017037804706245278
712 227 0.00019679390160422272
712 228 -0.012483498474800611
712 229 -0.01069404819912945
712 230 0.0018621236924754596
712 231 0.010843102389717169
712 364 0.020283139399350138
712 365 -0.0020770125786772464
712 366 -0.0016067362043129083
712 592 0.021200908215100622
712 593 0.0017080892708177286
712 594 0.00028988906014184982
712 709 -0.017762987984288228
712 710 0.000456723132904676
712 711 1.4961989980299961e-17
712 712 0.12243046729959768
713 139 -0.0024795362818995225
713 140 -0.0069800080552103617
713 141 -0.0028473653341769779
713 142 0.00059411012032445192
713 143 -0.0041219765044502171
713 144 -0.00036015727259483521
713 226 0.0017993580041683246
713 227 -0.0053838862358686502
713 228 0.001099036877630065
713 229 0.0002595595899113565
713 230 -0.002461172356121131
713 231 0.00068401552011912686
713 364 -0.0020770125786772464
713 365 -0.0011923644301299703
713 366 -0.011393846194516114
713 592 0.0017080892708177292
713 593 0.00099736244570711218
713 594 0.011228643556408806
713 709 -0.002748405072223529
713 710 0.0015819612096029086
713 711 0.0008107673471430374
713 712 0.0067392366567479902
713 713 0.083621467121013315
714 139 -0.01184469466514736
714 140 -0.00044351918033082272
714 141 -0.017297842492277705
714 142 0.012296404722894838
714 143 0.0018565125960616591
714 144 -0.015008344964817955
714 226 -0.012483498474800611
714 227 -0.0011176329910264249
714 228 -0.015670929233802595
714 229 0.010843102389717167
714 230 -0.0017198306337270291
714 231 -0.014745558343458216
714 364 -0.0016067362043129081
714 365 -0.011393846194516116
714 366 -0.00070868460787460786
714 592 0.00028988906014184939
714 593 0.011228643556408804
714 594 -0.00051435021689924683
714 709 1.5504091066542713e-17
714 710 0.0008107673471430348
714 711 0.00072668072751226045
714 712 0.0011159095491487267
714 713 0.00059315293102874683
714 714 0.08193568924434623
715 91 -0.0092860308203437849
715 92 0.0011329785080349515
715 93 -0.010751656747618164
715 94 -0.011787304566191816
715 95 -0.0012381771986724279
715 96 0.0092196597016438522
715 274 -0.015757320619267479
715 275 0.00046613783467867209
715 276 -0.010007616573649758
715 277 9.2888631918241864e-05
715 278 0.004807692307692308
715 279 0.0069393061200676079
715 412 0.016089813081962622
715 413 -0.001053389653350844
715 414 0.0013164666845547658
715 544 0.0058559856615932812
715 545 -0.0039097302116902887
715 546 0.0027487839308149541
715 697 -0.015009997638590625
715 698 0.00051363357469385738
715 699 -1.7618285302889447e-18
715 715 0.11474313436520375
716 91 -0.00046958559452915037
716 92 -0.0010255065521420261
716 93 0.0006212416799762124
716 94 0.00036438690389167463
716 95 -0.0025530818919584303
716 96 -0.0010670598711911906
716 274 0.0020687019372427743
716 275 -0.0052896491135617412
716 276 0.0025779908096233086
716 277 0.003205128205128205
716 278 0.0047190927119633063
716 279 -1.474514954580286e-17
716 412 -0.0010533896533508438
716 413 -0.00083706301276841922
716 414 -0.012130665482223042
716 544 -0.0039097302116902878
716 545 -0.010022191592502144
716 546 0.011550778990517548
716 697 0.0037187617798220621
716 698 0.0025171663786673149
716 699 -0.00037896012505672498
716 715 -0.013862977344363547
716 716 0.091313336410581453
717 91 -0.010751656747618164
717 92 0.0026244468081813403
717 93 -0.010542416325791306
717 94 0.0092196597016438522
717 95 0.0013800229224906159
717 96 -0.013543202658374966
717 274 -0.010007616573649757
717 275 0.00013090801594150433
717 276 -0.015378314009230922
717 277 0.0069393061200676088
717 278 -0.0020032051282051432
717 279 -0.0043010938683312296
717 412 0.001316466684554766
717 413 -0.012130665482223042
717 414 -0.00095447966678903083
717 544 0.0027487839308149541
717 545 0.011550778990517548
717 546 -0.0072591717353578068
717 697 -1.951563910473908e-18
717 698 -0.00037896012505672541
717 699 0.00038517296470711208
717 715 -0.00093378658927217818
717 716 -0.00029744547897910152
717 717 0.077805822402647093
718 106 -0.020233507338007488
718 107 -0.0010584432573173329
718 108 -0.011883695017481141
718 109 -0.0080721940546231996
718 110 -0.0029048535068567213
718 111 0.010561120105529936
718 259 -0.0064718227147574411
718 260 -0.0037273175092568571
718 261 -0.010002485309178634
718 262 -0.0081081193151583356
718 263 0.002915078226852932
718 264 0.010483163669740014
718 397 0.018221239861931797
718 398 -0.0042931527211582388
718 399 -0.00077797247424685537
718 559 0.012655629498516648
718 560 0.0028155709837852406
718 561 0.00042417771644142168
718 682 -0.021701770411204441
718 683 -0.0051428583952940875
718 684 0.0023580026151364965
718 706 -0.01658665216274946
718 707 0.0016025641025640865
718 708 4.0115480381963664e-18
718 718 0.10853495831339094
719 106 -0.0026610073598814345
719 107 -0.0079457074497977301
719 108 -0.0028907210719294881
719 109 -0.001302289404292619
719 110 -0.0016225267607512114
719 111 0.00042236585442365272
719 259 -0.0021247534066927542
719 260 -0.002000403617849561
719 261 -0.0024001901595719702
719 262 0.0013125141242888291
719 263 -0.0016325593603640442
719 264 -0.0004938949459375808
719 397 -0.0042931527211582388
719 398 -0.0011201058062804304
719 399 -0.01167198642345626
719 559 0.0028155709837852402
719 560 -0.0053594528036186844
719 561 0.01342108304854807
719 682 -0.0019377301901658823
719 683 -0.0023471264378489838
719 684 -5.9162153258661703e-05
719 706 -0.0016025641025641181
719 707 0.0027275562123440342
719 708 0.0013679481164210661
719 718 0.0054928573886166721
719 719 0.087577341887931981
720 106 -0.011883695017481139
720 107 -0.00048687491808333607
720 108 -0.017398984745585145
720 109 0.010561120105529934
720 110 0.0028262120082698065
720 111 -0.014298820029294751
720 259 -0.010002485309178634
720 260 -0.0048040363134181224
720 261 -0.015452947378827029
720 262 0.010483163669740015
720 263 -0.002897741099783733
720 264 -0.014148265704269306
720 397 -0.00077797247424685602
720 398 -0.01167198642345626
720 399 0.00053209685550487129
720 559 0.0004241777164414213
720 560 0.013421083048548072
720 561 -0.0025364810386216481
720 682 0.002358002615136497
720 683 -5.916215325866154e-05
720 684 -0.0029331216922182627
720 706 4.3368086899420177e-18
720 707 0.0013679481164210639
720 708 0.0012900651260643917
720 718 -0.00020542012929251967
720 719 0.0029532508346822783
720 720 0.083441584910560987
721 112 -0.0088564139590060226
721 113 0.002310691832087436
721 114 -0.0095411703254293517
721 115 -0.0178252529012469
721 116 0.00071343088694820849
721 117 0.01104554424243407
721 253 -0.0094348649102339883
721 254 -0.0023394958107809316
721 255 -0.010399198978255487
721 256 -0.0128790691226362
721 257 0.0010953537149971508
721 258 0.010201033050011479
721 391 0.018037684626899649
721 392 0.0011385375225977179
721 393 -0.00096359412085268671
721 565 0.016542899129679906
721 566 -0.0028866791100558408
721 567 0.00071663433633827761
721 682 -0.01061943365471817
721 683 0.0017721438064569035
721 684 -9.7578195523695399e-19
721 700 -0.015567168189932009
721 701 -0.00078199705958009172
721 702 -7.0473141211557788e-18
721 721 0.11428087138149412
722 112 0.00070812772952333369
722 113 -0.0010076870735841975
722 114 -0.00098537942522779415
722 115 0.0023159949895123115
722 116 -0.0065210422862814737
722 117 -0.0028139714122176278
722 253 -0.00073693170821682809
722 254 -0.0017073619672575418
722 255 0.0004882232092127015
722 256 -0.00050721038756695186
722 257 -0.0036030986053263848
722 258 0.0021000518070107216
722 391 0.0011385375225977171
722 392 -0.0026162936025198921
722 393 -0.011186757411120419
722 565 -0.0028866791100558412
722 566 0.0002820348575739279
722 567 0.011220436056226139
722 682 -0.0014329843986713013
722 683 0.0059187252687974744
722 684 -0.00042073212945488198
722 700 0.0024231311455481137
722 701 0.0029081648605535381
722 702 0.00094847277800461051
722 721 0.0037264999717713989
722 722 0.095170290746474401
723 112 -0.0095411703254293517
723 113 0.0014184667286183603
723 114 -0.012051562101100952
723 115 0.011045544242434072
723 116 -0.00041012525837147559
723 117 -0.015915413176795311
723 253 -0.010399198978255487
723 254 -0.001915622944633451
723 255 -0.013661295113092171
723 256 0.010201033050011479
723 257 -0.00030379434683543106
723 258 -0.013507267697537538
723 391 -0.00096359412085268692
723 392 -0.011186757411120418
723 393 0.0023867889759004741
723 565 0.00071663433633827761
723 566 0.011220436056226139
723 567 0.0032210611712943302
723 682 -9.7578195523695399e-19
723 683 -0.00042073212945488154
723 684 0.0020531378336086205
723 700 -7.1557343384043293e-18
723 701 0.00094847277800460855
723 702 0.001313200493984322
723 721 -0.0013441113341051227
723 722 0.0013159919739840263
723 723 0.080219762546398274
724 121 -0.0035489087678120066
724 122 -0.00080871818626186633
724 123 -0.0056121909080960753
724 124 -0.00032444502311588293
724 125 0.00081811787926708139
724 126 0.0056215710349037905
724 244 -0.0079884144669189264
724 245 -0.0048076923076923071
724 246 -0.0076305628954819599
724 247 -0.0014029005222340931
724 248 0.004807692307692308
724 249 0.0077185804084424423
724 574 -0.0068721362317972282
724 575 -0.010359924143091351
724 576 0.0055544620518951935
724 577 0.0050090397202427342
724 578 0.010381962686509195
724 579 -0.0056380813363554362
724 685 -0.029446867173102645
724 686 0.001850562111824776
724 687 0.0054940778710021116
724 688 -0.029459974374658582
724 689 -0.0015605375071952123
724 690 0.0055811010999829861
724 724 0.09881049689358222
725 121 -0.0024112822888259691
725 122 -0.0011919620451473899
725 123 -0.0036851295691073017
725 124 0.0024206819818311832
725 125 0.0044860134539981876
725 126 -0.0035740265443611821
725 244 -0.0032051282051282046
725 245 -0.012413877210647861
725 246 -0.0090220350292852525
725 247 0.003205128205128205
725 248 0.0028084285806231285
725 249 -0.00075100811580151611
725 574 -0.010359924143091347
725 575 -0.020287169754339154
725 576 0.015970984568724596
725 577 0.010381962686509193
725 578 0.0091791087309411878
725 579 0.0063037418933201746
725 685 -0.0013545660933034307
725 686 -0.0071752182318431199
725 687 0.0010260902177140774
725 688 0.0016445906979329922
725 689 -0.0074444517342959621
725 690 0.0010073334126532432
725 724 -0.00040419027798512756
725 725 0.11260783653457379
726 121 -0.0056121909080960753
726 122 -0.0012812834152611497
726 123 -0.014778200886494399
726 124 0.0056215710349037896
726 125 -0.0011701803905150294
726 126 -0.0059460160580196673
726 244 -0.0076305628954819599
726 245 -0.011425881183131405
726 246 -0.023533987890487308
726 247 0.0077185804084424414
726 248 -0.0031548542696476682
726 249 -0.0091214809306765371
726 574 0.0055544620518951926
726 575 0.015970984568724596
726 576 -0.011250395777954964
726 577 -0.0056380813363554353
726 578 0.0063037418933201746
726 579 0.013976695502558105
726 685 0.0054940778710021107
726 686 0.0010260902177140771
726 687 -0.0085591303575594888
726 688 0.0055811010999829852
726 689 0.0010073334126532428
726 690 -0.0088178065069831717
726 724 -0.011091633783700176
726 725 0.023216274884169105
726 726 0.09894597948427053
727 127 -0.0089422012353514296
727 128 0.0026057613573529934
727 129 -0.010709071583166807
727 130 -0.0091911199571975272
727 131 -0.0022665539805146887
727 132 0.0097443922709635668
727 238 -0.013187055380787802
727 239 -0.00105526049625154
727 240 -0.010168757428023277
727 241 -0.012542367811601857
727 242 0.001302163936295861
727 243 0.011451430108173039
727 376 0.014848911780548127
727 377 -0.00037036977585483513
727 378 0.0011543385109998273
727 580 0.014568793140852658
727 581 -0.00024186711804695103
727 582 -0.0011013999251987859
727 688 -0.013495872575196338
727 689 0.0046606853569552209
727 690 0
727 691 -0.010954827425305451
727 692 -0.0015828850595073678
727 693 0
727 727 0.10985545766317362
728 127 0.0010031972547888913
728 128 -0.0018274635532636082
728 129 0.00037742453980265408
728 130 -0.00066398987795058574
728 131 -0.0012251550367884804
728 132 -0.0010873055551943191
728 238 0.00054730360631256273
728 239 -0.0037578038624250937
728 240 0.0020764694179817317
728 241 -0.00030040016626824183
728 242 -0.0033846301539432848
728 243 0.00099629194779599257
728 376 -0.00037036977585483541
728 377 0.00098216023406311366
728 378 -0.012919848082134623
728 580 -0.00024186711804695
728 581 -0.0051943801133670486
728 582 0.012237742118198707
728 688 0.0014555571518270155
728 689 0.0030528004203322573
728 690 -0.00048747970014608984
728 691 0.0016222431456208379
728 692 0.0056678470747927329
728 693 -0.00041710581255215628
728 727 -0.0072300271246929799
728 728 0.098137217834889781
729 127 -0.010709071583166807
729 128 0.0027812706936488057
729 129 -0.014627912207645324
729 130 0.0097443922709635668
729 131 0.0013165405986518333
729 132 -0.012334141599921531
729 238 -0.010168757428023277
729 239 -0.00032737673586442093
729 240 -0.013553272400045079
729 241 0.01145143010817304
729 242 -0.0014075542060501601
729 243 -0.015467375431212606
729 376 0.0011543385109998266
729 377 -0.012919848082134621
729 378 0.0043696635029520994
729 580 -0.0011013999251987866
729 581 0.012237742118198707
729 582 0.002238172309334918
729 688 0
729 689 -0.00048747970014609006
729 690 0.0012948199052505624
729 691 1.0842021724855044e-19
729 692 -0.00041710581255215607
729 693 0.001989214652153896
729 727 -0.00037407513260266959
729 728 -0.0016240602072547204
729 729 0.08405445782920902
730 142 -0.014013205788891729
730 143 0.00066502850366957232
730 144 -0.012737680378560757
730 145 9.2888631918236009e-05
730 146 -0.0048076923076923071
730 147 0.0069393061200676096
730 223 -0.008058161238498094
730 224 -0.0017680756703948271
730 225 -0.010746728726530399
730 226 -0.017569371879307658
730 227 -0.00040120742813353594
730 228 0.012755813135612745
730 361 0.004103188454244816
730 362 0.0073296482236352824
730 363 0.0068667492320580994
730 595 0.016351431524964065
730 596 -0.0017078779441752853
730 597 0.00022753969830414434
730 712 -0.02540097245645111
730 713 0.0015421097077688839
730 714 -1.6263032587282567e-19
730 730 0.11675759363382253
731 142 -0.00093753559889453051
731 143 -0.0047714129887972698
731 144 -0.00042043637669598403
731 145 -0.003205128205128205
731 146 0.0047190927119633011
731 147 1.4094628242311558e-17
731 223 -0.00016551156783072441
731 224 -0.0011054427779466016
731 225 -0.00067291009414482614
731 226 -0.0020037715306976383
731 227 -0.0062093764320212078
731 228 0.0010664656627330231
731 361 0.0073296482236352833
731 362 -0.010650571217027987
731 363 -0.013232136618481168
731 595 -0.0017078779441752857
731 596 -0.001511300088497808
731 597 0.012248469656016996
731 712 -0.0016630184973593207
731 713 -0.001973606884028927
731 714 -0.00033633115729736983
731 730 0.00040479800784060517
731 731 0.078872496437490267
732 142 -0.012737680378560757
732 143 0.0020266464169858209
732 144 -0.01882384003137394
732 145 0.0069393061200676088
732 146 0.0020032051282051419
732 147 -0.0043010938683312435
732 223 -0.010746728726530397
732 224 -0.0026761152223499542
732 225 -0.010159824251582277
732 226 0.012755813135612745
732 227 -0.0013806171309487798
732 228 -0.01893761354352954
732 361 0.0068667492320580985
732 362 -0.013232136618481168
732 363 -0.010991853790566747
732 595 0.00022753969830414434
732 596 0.012248469656016997
732 597 -0.0061478971519008004
732 712 0
732 713 -0.00033633115729737005
732 714 -0.0010913160002909914
732 730 -0.0021880659191715079
732 731 -7.0687778453642309e-05
732 732 0.08299821643307885
733 10 -0.0053262551621943354
733 11 0.00084103278823326557
733 12 -0.0084070234641663334
733 22 -0.0054536066675879812
733 23 0.00090538653855775936
733 24 0.0084823529689923086
733 91 -0.019237537095777298
733 92 0.00077964325016776942
733 93 0.010115446911532709
733 277 -0.0071506657338784464
733 278 -0.0048076923076923106
733 279 -0.0069393061200676114
733 295 -0.02243589743589745
733 296 0.0096153846153846159
733 297 8.6736173798840355e-19
733 430 0.017850208207354293
733 431 -0.0019799170336653152
733 432 -0.0018745980677180726
733 544 0.0067631002147228881
733 545 0.0085953947461791143
733 546 -0.0073158075199225223
733 607 -0.0015923101205555582
733 608 -0.0045203930550304656
733 609 0.0057382236030645477
733 715 -0.036542324178313448
733 716 -0.0016163944550944113
733 717 0.0050325114768334615
733 733 0.11205567126435119
734 10 -0.00076153131433083726
734 11 0.0026865653506261788
734 12 0.00085482588241259083
734 22 -0.00069717756400634336
734 23 0.0025592138452325323
734 24 -0.00085764163890386788
734 91 0.0023822073527318705
734 92 -0.0066887966954190786
734 93 -0.0013866451784211495
734 277 -0.0032051282051282072
734 278 -0.011776869813923512
734 279 -0.0091884551344818734
734 295 0.00641025641025641
734 296 -0.0064102564102564152
734 297 0
734 430 -0.0019799170336653148
734 431 -0.002457703884912437
734 432 -0.011772570093473484
734 544 0.0085953947461791125
734 545 0.010941265907347357
734 546 0.007237839806066397
734 607 -0.0045203930550304647
734 608 -0.0098629056398803708
734 609 0.015351096034481038
734 715 0.0015887337500337943
734 716 -0.010798993510897973
734 717 -0.00098379585122342853
734 733 0.0005091170447643267
734 734 0.097602785399081196
735 10 -0.00840702346416633
735 11 0.0024573899849766926
735 12 -0.0044008281170125861
735 22 0.0084823529689923086
735 23 -0.0024602057414679721
735 24 -0.0044926127591056247
735 91 0.010115446911532707
735 92 0.0012043772606146661
735 93 -0.01776787460187185
735 277 -0.0069393061200676105
735 278 -0.011779477573517688
735 279 -0.020401125988529487
735 295 4.3368086899420177e-19
735 296 0
735 297 -0.0064102564102564152
735 430 -0.001874598067718073
735 431 -0.011772570093473484
735 432 -0.00282952963360927
735 544 -0.0073158075199225231
735 545 0.007237839806066397
735 546 0.0097946880555850879
735 607 0.0057382236030645468
735 608 0.015351096034481038
735 609 -0.010424784656125315
735 715 0.0050325114768334633
735 716 -0.0009837958512234268
735 717 -0.010493325376352888
735 733 -0.0085888667583013251
735 734 0.010074171936216424
735 735 0.084593531217197537
736 7 -0.0054536066675879812
736 8 -0.00090538653855775936
736 9 0.0084823529689923086
736 19 -0.005326255162194338
736 20 -0.00084103278823326525
736 21 -0.0084070234641663334
736 145 -0.0071506657338784411
736 146 0.0048076923076923071
736 147 -0.0069393061200676114
736 223 -0.013460964092600947
736 224 0.0013401179303560494
736 225 0.010870774833408833
736 289 -0.02243589743589745
736 290 -0.0096153846153846159
736 291 8.6736173798840355e-19
736 361 0.0067135531778444064
736 362 -0.0105328648582056
736 363 -0.0080471816222256083
736 424 -0.0034569192830918773
736 425 0.0053697299410120011
736 426 0.0062293917106573671
736 613 0.012631314376845521
736 614 0.0016438728943182377
736 615 -0.0039953666486681654
736 673 -0.020477414221487231
736 674 0.024761142666133749
736 675 0.00011075727499900101
736 730 -0.041132169692456824
736 731 0.0049108846974389372
736 732 0.004557981333844106
736 736 0.11206573436606621
737 7 0.00069717756400634336
737 8 0.0025592138452325323
737 9 0.00085764163890386809
737 19 0.0007615313143308378
737 20 0.0026865653506261767
737 21 -0.00085482588241259452
737 145 0.003205128205128205
737 146 -0.011776869813923506
737 147 0.00918845513448187
737 223 -0.00026244617220805289
737 224 -0.0044299405146301955
737 225 -0.00075405752145865776
737 289 -0.00641025641025641
737 290 -0.0064102564102564152
737 291 0
737 361 -0.010532864858205601
737 362 0.010556903419573714
737 363 -0.0065501954230389606
737 424 0.0053697299410120011
737 425 -0.015413114461313101
737 426 -0.016287323094277002
737 613 0.0016438728943182373
737 614 -0.0026043798503205019
737 615 0.0119270704432333
737 673 0.024761142666133742
737 674 -0.019436771388365259
737 675 0.00035645340745788477
737 730 0.0017057564923107311
737 731 -0.01103496878628271
737 732 0.00022450230582966076
737 736 -0.0075904723135739169
737 737 0.093445560845120179
738 7 0.0084823529689923086
738 8 0.0024602057414679721
738 9 -0.0044926127591056256
738 19 -0.0084070234641663317
738 20 -0.0024573899849766982
738 21 -0.0044008281170125948
738 145 -0.0069393061200676096
738 146 0.011779477573517685
738 147 -0.020401125988529476
738 223 0.010870774833408833
738 224 -0.0033450799604944725
738 225 -0.017596716409189798
738 289 4.3368086899420177e-19
738 290 0
738 291 -0.0064102564102564152
738 361 -0.0080471816222256066
738 362 -0.0065501954230389597
738 363 0.0077700834762215506
738 424 0.0062293917106573671
738 425 -0.016287323094277002
738 426 -0.01270506963999567
738 613 -0.0039953666486681645
738 614 0.011927070443233299
738 615 -0.0056562416043966042
738 673 0.00011075727499900139
738 674 0.00035645340745788455
738 675 -0.0023082958641676057
738 730 0.004557981333844106
738 731 0.00022450230582966057
738 732 -0.0099670833940855193
738 736 -0.0077913331216303387
738 737 -0.0061544976147839339
738 738 0.084697391425830673
739 28 -0.0041654726013099861
739 29 0.0013163453509484827
739 30 0.00056426838108510286
739 31 0.00548464704653359
739 32 0.0032051282051282046
739 33 0.00012085790920727158
739 280 0.0060992954915086908
739 281 -0.0050810600374188199
739 282 -0.00091962284667138831
739 283 -0.016338819449222199
739 284 0.0053779439682135723
739 285 -0.013099544953102608
739 415 -0.0085692166148652934
739 416 -0.0050809995011972132
739 417 0.011488720942529318
739 739 0.083966240899850983
740 28 -0.00028621875161561955
740 29 -0.013683284710463966
740 30 -0.01154762153016557
740 31 0.0048076923076923054
740 32 0.00039216407417844482
740 33 0.006494093195578558
740 280 -0.0034784959348547182
740 281 0.0004008445942965753
740 282 -0.0074168107902303076
740 283 0.0037753798656494698
740 284 -0.0094334292814708589
740 285 0.0077078117959156625
740 415 -0.0050809995011972114
740 416 0.0055171817256085588
740 417 0.0054246346467778676
740 739 -0.0018711132944636529
740 740 0.099156945774227678
741 28 -0.0017290768029065175
741 29 -0.011547621530165572
741 30 -0.015846160253165594
741 31 -0.0018823472189978571
741 32 0.006494093195578558
741 33 -0.0037199087127305817
741 280 0.0010835822815337395
741 281 -0.0074168107902303076
741 282 -0.0042954948171741308
741 283 -0.010806199769110987
741 284 0.0077078117959156608
741 285 -0.026249783324028147
741 415 0.011488720942529319
741 416 0.0054246346467778667
741 417 -0.010571640297990206
741 739 0.012258290650009744
741 740 -0.00031931544622877499
741 741 0.081728514097839031
742 25 -0.0010883778353712214
742 26 0.00083221483471644013
742 27 -0.00036878127955529335
742 28 -0.0035792585575720494
742 29 -0.00085159556673005473
742 30 -0.00027055382039281139
742 283 -0.0044334124142012873
742 284 -0.0020271198627046577
742 285 -0.00073064035330194701
742 286 -0.0014403177441413883
742 287 0.00072704629928498489
742 288 0.00061540671760643205
742 418 -0.002785387418243752
742 419 0.00068140128857406145
742 420 0.012749203802254461
742 538 -0.0041878638734477187
742 539 0.00058568027512193445
742 540 -0.013091764160348532
742 739 -0.0026084817424823908
742 740 -0.0008669707655653366
742 741 0.00024966475667383766
742 742 0.076395205055259055
743 25 -0.00077034926784766194
743 26 -0.009508331216003519
743 27 -0.010561410890248004
743 28 0.00075096853583404735
743 29 -0.013060124556232256
743 30 0.01109111608539173
743 283 -0.00042455576014055517
743 284 -0.014877137344729802
743 285 -0.01168382697061757
743 286 -0.00087551780327911719
743 287 -0.010273323817105722
743 288 0.010499701273753537
743 418 0.00068140128857406101
743 419 0.014761736784927697
743 420 -0.00087618598001117597
743 538 0.00058568027512193401
743 539 0.015486935125589055
743 540 0.00085249469612473368
743 739 0.0023381574395628683
743 740 -0.026445351652390578
743 741 1.0842021724855044e-18
743 742 0.0020543467750137444
743 743 0.10877832933171591
744 25 -0.0023719864077604209
744 26 -0.010561410890248004
744 27 -0.010803120665024179
744 28 -0.0024872236890493026
744 29 0.01109111608539173
744 30 -0.014120926227013931
744 283 0.0014860295153545442
744 284 -0.011683826970617572
744 285 -0.015136878260567078
744 286 0.0026186118458115595
744 287 0.010499701273753536
744 288 -0.010692326546221128
744 418 0.012749203802254461
744 419 -0.00087618598001117695
744 420 -0.0052997359686007047
744 538 -0.013091764160348532
744 539 0.00085249469612473378
744 540 -0.0048501027587410511
744 739 0.00024966475667383766
744 740 8.6736173798840355e-19
744 741 -0.0022671785414775953
744 742 0.00033205325797033402
744 743 0.00070014832056380081
744 744 0.074573898360906457
745 1 0.0027917382034485121
745 2 0.00083539766767648472
745 3 -0.00074936559950940457
745 13 0.0027187092888069863
745 14 0.00080128205128204627
745 15 0.0007370777091969562
745 25 -0.0067937743946543524
745 26 -0.0023612566230231851
745 27 0.0011205324858833739
745 286 -0.0072095116675055023
745 287 -0.0025389954816285487
745 288 -0.0012729799700537253
745 298 -0.006410256410256404
745 299 -0.00641025641025641
745 300 3.5584071302088373e-19
745 427 -0.0026563534008037641
745 428 0.0016645520000292304
745 429 0.011882416311649142
745 604 -0.0027373307963485319
745 605 0.0015971567843634854
745 606 -0.01191065198127891
745 742 -0.0028814570579368749
745 743 -0.0060590001335155425
745 744 3.6024122347939891e-05
745 745 0.084304756524149829
746 1 -0.00076716643488761789
746 2 -0.0052210823093720013
746 3 -0.0084239082124644218
746 13 -0.00080128205128205657
746 14 -0.0052941112240135263
746 15 0.0084776658805466344
746 25 -0.00075869252045908365
746 26 -0.019843354520355086
746 27 0.0098433836951316838
746 286 -0.0009364313790644459
746 287 -0.020615903732395722
746 288 -0.0099397054835873386
746 298 -0.0096153846153846142
746 299 -0.022435897435897422
746 300 0
746 427 0.0016645520000292313
746 428 0.018319712471833415
746 429 -0.0014798725931682915
746 604 0.0015971567843634858
746 605 0.018766125071144162
746 606 0.0014027979795197161
746 742 -0.0028538719283873384
746 743 -0.023598457103190182
746 744 -2.1684043449710089e-18
746 745 0.010103739519221111
746 746 0.10781291682913093
747 1 -0.002351929702073507
747 2 -0.0084239082124644201
747 3 -0.0044389880755355063
747 13 0.0023396418117610594
747 14 0.0084776658805466344
747 15 -0.0045069533866114401
747 25 -0.001393814637817313
747 26 0.0098433836951316821
747 27 -0.017149106970700462
747 286 0.0012413671536469625
747 287 -0.0099397054835873404
747 288 -0.01748928992623023
747 298 3.5584071302088359e-19
747 299 4.3368086899420177e-19
747 300 -0.0064102564102564048
747 427 0.01188241631164914
747 428 -0.0014798725931682911
747 429 -0.0026239821368092362
747 604 -0.011910651981278914
747 605 0.0014027979795197157
747 606 -0.0023787029039215161
747 742 3.6024122347939674e-05
747 743 -2.1684043449710089e-18
747 744 -0.0027043844046639193
747 745 -3.3298530085221559e-07
747 746 9.0982578453397897e-05
747 747 0.07203693518860628
748 10 0.0028262094628261742
748 11 -0.00084103278823326535
748 12 -0.00080772012557725795
748 22 0.002924555468885935
748 23 -0.00090538653855775936
748 24 0.00073239062075128162
748 31 -0.01214624552160269
748 32 -0.003205128205128202
748 33 -0.0093093130436891613
748 280 -0.007166297525405119
748 281 0.0024279698827006043
748 282 -0.001382410118339991
748 295 -0.0064102564102564048
748 296 0.00641025641025641
748 297 0
748 415 0.012446882582430555
748 416 0.0080702570103611329
748 417 0.0072400056233794053
748 430 -0.0092717521874930865
748 431 -0.0042092294595605104
748 432 0.015485915780007322
748 607 -0.0036308480151193579
748 608 -0.0011565754553601924
748 609 -0.012199451021352616
748 733 -0.017829079476831294
748 734 -0.023913435563825403
748 735 -0.00010142825691862654
748 739 -0.01015510698264957
748 740 0.0011344287060987821
748 741 -0.00086169122673921046
748 748 0.09905297467902531
749 10 0.00076153131433083791
749 11 -0.0051866110499943418
749 12 0.0083599177073309956
749 22 0.00069717756400634314
749 23 -0.0050882650439345771
749 24 -0.0083571019508397217
749 31 -0.0048076923076923028
749 32 -0.0070537625492475432
749 33 -0.0064940931955785545
749 280 0.00082540578013650127
749 281 -0.020293225691227875
749 282 0.0098481922039506311
749 295 0.0096153846153846159
749 296 -0.022435897435897426
749 297 -4.3368086899420177e-19
749 415 0.0080702570103611329
749 416 0.006663057657379734
749 417 -0.0070956006027831746
749 430 -0.0042092294595605121
749 431 -0.0012873806780111506
749 432 0.0052692922674760466
749 607 -0.001156575455360192
749 608 0.017758241126869662
749 609 -0.0013331267787811435
749 733 -0.023913435563825407
749 734 -0.01656971593857989
749 735 -0.00011648853725774051
749 739 -0.0020706994990294238
749 740 -0.034194405452732654
749 741 0.0047072886332142115
749 748 3.3092224573265556e-05
749 749 0.10992229736573945
750 10 -0.0024102842281413599
750 11 0.0083599177073309938
750 12 -0.0043493318307759789
750 22 0.0023349547233153835
750 23 -0.0083571019508397199
750 24 -0.0043590664363515339
750 31 -0.011900335482724978
750 32 -0.0064940931955785553
750 33 -0.019595685950011273
750 280 0.0012086123206958258
750 281 0.0098481922039506294
750 282 -0.017652252293042753
750 295 0
750 296 -4.3368086899420177e-19
750 297 -0.0064102564102564048
750 415 0.0072400056233794044
750 416 -0.0070956006027831746
750 417 0.009803094813023985
750 430 0.015485915780007322
750 431 0.0052692922674760466
750 432 -0.010406267718272367
750 607 -0.012199451021352618
750 608 -0.0013331267787811429
750 609 -0.0030698916551682599
750 733 -0.00010142825691862611
750 734 -0.00011648853725774067
750 735 -0.0017616650941402248
750 739 -0.00086169122673921002
750 740 0.0047072886332142107
750 741 -0.0097970713401008911
750 748 0.0099045153748848376
750 749 -0.0082601487165117112
750 750 0.083222005298804733
751 43 3.16478261304338e-05
751 44 -0.0019646287859327364
751 45 0.0051589663195287811
751 46 -0.0052395567369055368
751 47 0.0026149899154685684
751 48 -0.005879888835591358
751 208 -0.01595479529000875
751 209 -0.00032254528313815933
751 210 0.012422809724835187
751 211 -0.017132492629492471
751 212 -0.00044477243147107395
751 213 -0.009176899018015423
751 493 0.01955360801438815
751 494 -0.0005149794987837484
751 495 -0.0028438853571688873
751 751 0.10461715094515066
752 43 -0.003567192888496838
752 44 0.0052697337109852997
752 45 0.0035031180783523463
752 46 0.0042175540180326692
752 47 -0.00645342608953277
752 48 0.0073795636641259829
752 208 0.0012800188194259444
752 209 -0.0052104677094762649
752 210 -0.0014370969404306135
752 211 -0.0020473365340351758
752 212 -0.0062079831728378337
752 213 -0.0033900072672085725
752 493 -0.00051497949878374872
752 494 -0.0028130572922171367
752 495 -0.01081882090223011
752 751 0.013438615772609314
752 752 0.098725424456107283
753 43 0.0051589663195287802
753 44 0.0010992719245061944
753 45 -0.0051273184933983366
753 46 -0.0058798888355913598
753 47 0.0049757175102798272
753 48 -0.018421887243669825
753 208 0.012422809724835185
753 209 0.00096674921341554189
753 210 -0.017140084046752165
753 211 -0.009176899018015423
753 212 -0.0009861611133624203
753 213 -0.013781517488330397
753 493 -0.0028438853571688873
753 494 -0.01081882090223011
753 495 0.0023211484441115838
753 751 -0.0061381915035203663
753 752 -0.011805498055847206
753 753 0.082526512111474187
754 52 -0.0094907951088626791
754 53 -0.0061064270108522377
754 54 0.0078575718002163453
754 55 0.00084250378989183269
754 56 0.00022674868597866095
754 57 -0.0051599533008841805
754 199 -0.00091521549862215814
754 200 0.00084325757042660269
754 201 0.0056304456175557769
754 202 -0.00034826993692402275
754 203 -0.00084325757042660312
754 204 -0.0056304456175557769
754 754 0.072103842047481992
755 52 -0.0077089911134163407
755 53 -0.016298147747017711
755 54 0.012836496979152276
755 55 0.0018293127885427635
755 56 0.0081087165655055939
755 57 -0.00090590549146754768
755 199 0.0024458216729907052
755 200 0.0024271913723782168
755 201 -0.006062832635667743
755 202 -0.0024458216729907056
755 203 0.0044115008383216955
755 204 -0.0036365030180059866
755 754 0.0050074919233600804
755 755 0.10568462816708364
756 52 0.0078575718002163453
756 53 0.01043265082530612
756 54 -0.016332412704808834
756 55 -0.0051599533008841797
756 56 -0.0033097516453137023
756 57 -0.0043174495109923527
756 199 0.0056304456175557769
756 200 -0.0036589864818215869
756 201 -0.0065456611161779418
756 202 -0.0056304456175557769
756 203 -0.0012326568641598309
756 204 -0.0059787155544798066
756 754 -0.0065035088977312781
756 755 -0.0001223867170972448
756 756 0.068858726171381626
757 61 -0.00018805838480333834
757 62 -0.0015366273632238297
757 63 0.005298177822327871
757 64 -0.0039650965730038011
757 65 0.0021924781552072757
757 66 -0.0058585460707514334
757 190 -0.012674289940278624
757 191 -0.0013637565806958762
757 192 0.011591798259613099
757 193 -0.020871858553437043
757 194 -0.0016087067815727287
757 195 -0.0085633059257863506
757 511 0.018838729986235432
757 512 0.0011942955154502124
757 513 -0.0024276123190552779
757 757 0.10039761858757029
758 61 -0.0031391914657879316
758 62 0.0046399734755161893
758 63 0.0037659008156564621
758 64 0.0037950422577713782
758 65 -0.0031097616095562665
758 66 0.0061843610764028747
758 190 0.00023880752186822645
758 191 -0.0034707498622814177
758 192 -0.00079337354209271912
758 193 -0.0032112708841368323
758 194 -0.0086623356240322635
758 195 -0.00389908575201508
758 511 0.0011942955154502122
758 512 -0.0041285471304724538
758 513 -0.010905158414922718
758 757 0.013415111537413057
758 758 0.10198791709149824
759 61 0.005298177822327871
759 62 0.0013620546618103066
759 63 -0.0054862362071312126
759 64 -0.0058585460707514326
759 65 0.0037805149225567224
759 66 -0.014809575302791249
759 190 0.011591798259613099
759 191 0.001610472611753433
759 192 -0.015710833146958234
759 193 -0.0085633059257863506
759 194 -0.0014952395981689261
759 195 -0.014865185394343254
759 511 -0.0024276123190552774
759 512 -0.010905158414922718
759 513 0.0034145076799241983
759 757 -0.0042012335051620914
759 758 -0.012013613712955812
759 759 0.078938557527387085
760 67 -0.00034075000912745347
760 68 -0.00084734814352558458
760 69 0.005612107104841421
760 70 -0.0032421213164305122
760 71 -0.0001871027230696703
760 72 -0.0044073432572368475
760 184 -0.0025732599008761853
760 185 0.00078658672219971445
760 186 0.005473224130641885
760 187 0.0012296880391682958
760 188 0.00055378050933693247
760 189 -0.0043707315878580549
760 760 0.069177230425512895
761 67 -0.0024499122460896871
761 68 0.0044194820728953449
761 69 0.0036602352993622854
761 70 0.0014154613794944324
761 71 -0.0003791803249332845
761 72 0.0031162347684580397
761 184 0.0023891508247638167
761 185 0.00088443423470027866
761 186 -0.0042062157288843749
761 187 -0.0010487835932271698
761 188 0.0086746397249470933
761 189 -0.00044236779990988707
761 760 0.008475305925159056
761 761 0.093228054129939397
762 67 0.005612107104841421
762 68 0.0012563891455161296
762 69 -0.0059528571139688766
762 70 -0.0044073432572368475
762 71 0.00071238861461188352
762 72 -0.013144685443425029
762 184 0.005473224130641885
762 185 -0.0018023695750382196
762 186 -0.011548194321979205
762 187 -0.004370731587858054
762 188 0.0019614783539362688
762 189 -0.0031410435486897616
762 760 -0.0018438276624989265
762 761 0.0013897719620165512
762 762 0.066199213083716138
763 73 0.00064924405259473574
763 74 -0.002207152836033332
763 75 0.0049605850770372394
763 76 -0.0050381983100604901
763 77 0.0024508303943320824
763 78 -0.0051358169760225159
763 178 -0.012792590063926747
763 179 -0.00097565928536376303
763 180 0.010094055442240915
763 181 -0.013742157666801036
763 182 0.00071768484030852947
763 183 -0.0097175451769574463
763 523 0.015938736214095424
763 524 -0.00019216445957840429
763 525 -0.00032122999912450657
763 763 0.09142353265810238
764 73 -0.0038097169385974345
764 74 0.0072329392611188087
764 75 0.0026136781707766866
764 76 0.0040533944968961849
764 77 -0.0077104165749684135
764 78 0.0090802216660837067
764 178 0.00062690481720033904
764 179 -0.0034821230668528299
764 180 -0.0021265596979294656
764 181 -0.00088487926225557271
764 182 -0.0041459811313689079
764 183 -0.0025063506696267118
764 523 -0.00019216445957840442
764 524 -0.0041866307161353249
764 525 -0.010586994637442915
764 763 0.0017396310672494024
764 764 0.10071281582886897
765 73 0.0049605850770372394
765 74 0.00020983201693053409
765 75 -0.0043113410244424964
765 76 -0.0051358169760225159
765 77 0.0066763755122375519
765 78 -0.014976256678410342
765 178 0.010094055442240915
765 179 0.00027728645591668794
765 180 -0.013412908205246394
765 181 -0.0097175451769574445
765 182 -0.00010250451578056209
765 183 -0.013146400962160508
765 523 -0.00032122999912450646
765 524 -0.010586994637442913
765 525 0.0031629416654113556
765 763 -0.00062740699279576753
765 764 -0.013856134978693856
765 765 0.074120177603418616
766 76 -0.009393910476289789
766 77 0.0022300050433304961
766 78 0.0098379544611410935
766 79 -0.0094963087461878877
766 80 -0.0021669206123487439
766 81 -0.0098945715855655939
766 175 -0.012935489360693088
766 176 -0.0010076524125948094
766 177 0.010283227247073801
766 178 -0.013023828732641409
766 179 0.0010996734373477125
766 180 -0.010203305253664375
766 310 0.016178194198932374
766 311 -2.1544433707906254e-05
766 312 6.3370237434320562e-05
766 526 0.015860590392120618
766 527 -0.000125625151996424
766 528 -7.0683490879551106e-05
766 763 -0.011059341545257432
766 764 0.0016292712906145644
766 765 5.3125906451789717e-18
766 766 0.1133234612199947
767 76 0.00062744094076639387
767 77 -0.001366796320569629
767 78 0.0011104666861301066
767 79 -0.00056435650978464214
767 80 -0.0014224748889172182
767 81 0.0011586947534973002
767 175 0.00059491168996929464
767 176 -0.0035750435085968803
767 177 -0.0021225423002146238
767 178 -0.00050289066521638933
767 179 -0.0036425184803416336
767 180 -0.0020286703601723913
767 310 -2.1544433707906309e-05
767 311 0.0010449222090063311
767 312 0.011540260331662522
767 526 -0.00012562515199642448
767 527 -0.003842107350894121
767 528 -0.010964833557817341
767 763 -0.0015758569145136402
767 764 0.0055789898051328869
767 765 0.00038365582489651297
767 766 5.6518967099511777e-05
767 767 0.10042042833978158
768 76 0.0098379544611410935
768 77 -0.0012933794677160492
768 78 -0.012488361327608973
768 79 -0.0098945715855655939
768 80 -0.0012451514003488523
768 81 -0.012599479520035537
768 175 0.010283227247073801
768 176 0.00028130385363153015
768 177 -0.013658657130279313
768 178 -0.010203305253664375
768 179 0.00037517579367376316
768 180 -0.013564538124002736
768 310 6.337023743432086e-05
768 311 0.011540260331662524
768 312 0.0050385101528165853
768 526 -7.0683490879551472e-05
768 527 -0.010964833557817339
768 528 0.0032103001976034862
768 763 5.6378512969246231e-18
768 764 0.00038365582489651123
768 765 0.0019661541057819547
768 766 -3.1824240035378901e-05
768 767 0.001390255894331017
768 768 0.082128802608926882
769 37 -0.011744352110321699
769 38 0.0014579409700743271
769 39 0.010790674707751798
769 40 -0.013238238480218906
769 41 -0.00083145929070088263
769 42 -0.010218683007751013
769 214 -0.0097558858607003328
769 215 -0.001998378300887141
769 216 0.0098577010419648153
769 217 -0.013044089541526929
769 218 0.0010270348821292442
769 219 -0.010920340567077604
769 349 0.016634188235327602
769 350 0.0010922054534145717
769 351 -0.00074713359237723253
769 487 0.017323351783517852
769 488 -0.00073850139776062015
769 489 0.00087753694489622002
769 769 0.11453053694823222
770 37 -0.00014462313248977477
770 38 -0.0027023597875751914
770 39 0.00053812078120300702
770 40 0.00077110481186322107
770 41 -0.0037441403513184942
770 42 0.0021966318661403006
770 214 -0.00039581419832303906
770 215 -0.0015386218818931429
770 216 -0.0012913601461617419
770 217 -0.00057552922043485936
770 218 -0.0033041109543211606
770 219 -0.00083071292684043442
770 349 0.0010922054534145717
770 350 -0.0020867118023975709
770 351 0.011381183747386602
770 487 -0.00073850139776061949
770 488 -0.00056315213211564213
770 489 -0.011469067870894276
770 769 -0.0075317341858944942
770 770 0.092252611156881187
771 37 0.0107906747077518
771 38 -0.0016785490874534834
771 39 -0.013059489973803771
771 40 -0.010218683007751011
771 41 -0.00020721428770585504
771 42 -0.013922055982570736
771 214 0.0098577010419648135
771 215 0.0011124860076844136
771 216 -0.012876497321149045
771 217 -0.010920340567077602
771 218 0.001385956941816059
771 219 -0.013379505707197013
771 349 -0.00074713359237723242
771 350 0.011381183747386602
771 351 0.0022185323998187697
771 487 0.00087753694489622045
771 488 -0.011469067870894275
771 489 0.0028032901744716428
771 769 0.00050340531104287566
771 770 -0.00038299426370466899
771 771 0.078754912872859267
772 58 -0.00052626850783635097
772 59 -0.001719644262529004
772 60 0.0053679960033172144
772 61 -0.0035671032923782339
772 62 0.0015554780555505486
772 63 -0.0052315374701870331
772 193 -0.006802021414783737
772 194 0.0049309420131523271
772 195 0.005500788749197791
772 196 -0.0026509863161113894
772 197 -0.0046906121477274043
772 198 -0.0053679960033172127
772 757 -0.011996894427156995
772 758 -0.0060611110074293584
772 759 7.589415207398531e-19
772 772 0.066915705699020153
773 58 -0.003322208365093106
773 59 0.0035260562258899873
773 60 0.0045151600998972301
773 61 0.0031580421581146501
773 62 -0.0021321841463296538
773 63 0.0054278485221606887
773 193 0.0065335061157164292
773 194 -0.013572362373091557
773 195 -0.011378935409777068
773 196 -0.0062931762502915056
773 197 -0.0039104561030726681
773 198 -0.0074861279850956261
773 757 -0.0028559828023011534
773 758 0.0030453809947373809
773 759 0.00083425042095218731
773 772 0.0097650717173664442
773 773 0.1122798704234434
774 58 0.0053679960033172144
774 59 0.0021113139460510778
774 60 -0.005894264511153555
774 61 -0.0052315374701870331
774 62 0.0030240023683145321
774 63 -0.013909800464654598
774 193 0.005500788749197791
774 194 -0.0089750892559309122
774 195 -0.01700639053840744
774 196 -0.0053679960033172127
774 197 -0.0050822818312494748
774 198 -0.0080189823194285973
774 757 1.0842021724855044e-18
774 758 0.00083425042095218774
774 759 0.0012485501286626753
774 772 -0.0002673631473029467
774 773 0.007325447628164122
774 774 0.071462081010581033
775 40 -0.012816170188256334
775 41 0.0011030240817608956
775 42 0.010244246590164839
775 43 -0.0076063307566800169
775 44 -0.0030285832177174661
775 45 -0.01014680061136328
775 211 -0.012337782724819633
775 212 -0.0014227442388992041
775 213 0.011103079643388358
775 214 -0.0095200669187954952
775 215 0.0022246870990020795
775 216 -0.0099729433491542452
775 346 0.011884133500993778
775 347 -0.00093714728166253134
775 348 0.0019868037331918003
775 490 0.0090391070110862649
775 491 0.0019594714488419211
775 492 0.001049007588046469
775 751 -0.011231622119864563
775 752 -0.0046795426874033253
775 753 -1.951563910473908e-18
775 769 -0.011668355436794604
775 770 0.0019025183830256016
775 771 -1.0625181290357943e-17
775 775 0.14109423475873192
776 40 -0.00049954002080320717
776 41 -0.0034461452721525152
776 42 0.0018699888134843601
776 43 -0.001426019115153364
776 44 -0.0011155418307667766
776 45 -0.00044602819377816843
776 211 0.00017981986366489747
776 212 -0.003365000999108934
776 213 -0.0012438507375151719
776 214 0.00062212299643797718
776 215 -0.0014853780049133829
776 216 -0.0010159137672352304
776 346 -0.00093714728166253123
776 347 -0.0057538850673822745
776 348 0.012697977587052277
776 490 0.0019594714488419211
776 491 -0.0057833225572431436
776 492 -0.012101324001016066
776 751 -0.0014744144822751192
776 752 0.0045405362964687328
776 753 0.00062024970959773454
776 769 -0.0013026098221026027
776 770 0.0051067211822442646
776 771 -0.00035331885411508859
776 775 0.0085434555312718582
776 776 0.088095267602634919
777 40 0.010244246590164839
777 41 -0.00049062070052614056
777 42 -0.013383402405260408
777 43 -0.010146800611363284
777 44 -0.0028498743476243244
777 45 -0.013699026157393195
777 211 0.011103079643388358
777 212 0.0011599954163309801
777 213 -0.014811475409410409
777 214 -0.0099729433491542469
777 215 0.0013446957467752689
777 216 -0.012496790027716729
777 346 0.001986803733191799
777 347 0.012697977587052279
777 348 -0.0072779351149884234
777 490 0.0010490075880464687
777 491 -0.012101324001016064
777 492 -0.0084744238967143365
777 751 -1.7347234759768071e-18
777 752 0.00062024970959773519
777 753 0.0016657936789573995
777 769 -9.9204498782423656e-18
777 770 -0.00035331885411508555
777 771 0.0016570318451453775
777 775 -0.0020191954498478349
777 776 0.00010701645860922539
777 777 0.08933263341241296
778 46 -0.001570902527960574
778 47 -0.0022256685724350834
778 48 0.0079682530072749322
778 49 -0.0061101523498630021
778 50 0.0009470421706916682
778 51 -0.0067230129730502467
778 205 -0.0015353443719491812
778 206 -0.0048076923076923088
778 207 0.00789793523337891
778 208 -0.017172818874596582
778 209 -0.0002486368528035501
778 210 -0.011854034325084785
778 496 0.0067234339295482917
778 497 0.0059999134511283725
778 498 0.0033998175459112583
778 751 -0.019104379929281629
778 752 0.00065516238335431524
778 753 -2.6020852139652106e-18
778 778 0.095490279349732907
779 46 -0.0038282326749991859
779 47 0.002470094159412945
779 48 0.0026993694320399794
779 49 0.0025496062732557711
779 50 -0.0072123637577585515
779 51 0.0076712774030303701
779 205 -0.0032051282051282072
779 206 0.0025242299315567356
779 207 0.00080632289315475485
779 208 -0.0018512009553676534
779 209 -0.0058294579653495934
779 210 -0.0021357811342319144
779 496 0.0059999134511283733
779 497 -0.010954151721865195
779 498 -0.014732692556171639
779 751 -0.0025499658217738898
779 752 0.00086482080935113416
779 753 0.00048972981634656191
779 778 0.0018370835421588922
779 779 0.086134603708812901
780 46 0.0079682530072749322
780 47 0.00029552327819382367
780 48 -0.009539155535235511
780 49 -0.0067230129730502467
780 50 0.0052674312491842162
780 51 -0.021326690149356273
780 205 0.00789793523337891
780 206 0.0032101690470009076
780 207 -0.0094332796053280855
780 208 -0.011854034325084787
780 209 0.00026806501961424214
780 210 -0.016694952937070337
780 496 0.0033998175459112583
780 497 -0.014732692556171639
780 498 -0.0056637333767920756
780 751 -2.7105054312137611e-18
780 752 0.00048972981634656169
780 753 0.0008162525889056848
780 778 2.5273523171982434e-05
780 779 -0.009363109137280376
780 780 0.082143604871958639
781 79 -0.0095670927016325187
781 80 0.0021909744224691842
781 81 0.0099820339424498295
781 82 -0.0095200669187954952
781 83 -0.0022246870990020734
781 84 -0.0099729433491542452
781 172 -0.012816170188256367
781 173 -0.0011030240817608943
781 174 0.010244246590164839
781 175 -0.012992405939123451
781 176 0.0010303571292200775
781 177 -0.010259133952854256
781 307 0.016349274290337862
781 308 6.5801689358958035e-05
781 309 -1.1826857895071434e-05
781 529 0.015872385954188325
781 530 4.0745750000635141e-05
781 531 1.2586526376825653e-05
781 766 -0.011252124554616105
781 767 0.001592501641285981
781 768 4.6620693416876691e-18
781 781 0.11390466415504807
782 79 0.00058841031990508207
782 80 -0.0014852414819809126
782 81 0.0011784782761889933
782 82 -0.00062212299643797067
782 83 -0.0014853780049133795
782 84 0.0010159137672352437
782 172 0.00049954002080320804
782 173 -0.0034461452721525382
782 174 -0.001869988813484361
782 175 -0.00057220697334402562
782 176 -0.0036077087684605385
782 177 -0.0020902215060095404
782 307 6.580168935895752e-05
782 308 0.0011083296074767975
782 309 0.011537109004897825
782 529 4.0745750000634958e-05
782 530 -0.0037819224156804866
782 531 -0.010990935991964188
782 766 -0.0016126265638422234
782 767 0.0054344314827117993
782 768 0.00037312107932371873
782 781 0.00032824829566584527
782 782 0.099765517623183309
783 79 0.009982033942449833
783 80 -0.001225367877657159
783 81 -0.012698426489351065
783 82 -0.0099729433491542452
783 83 -0.0013446957467752561
783 84 -0.012496790027716727
783 172 0.010244246590164839
783 173 0.00049062070052614099
783 174 -0.013383402405260435
783 175 -0.010259133952854256
783 176 0.00031362464783661376
783 177 -0.013639237701154988
783 307 -1.1826857895070526e-05
783 308 0.011537109004897825
783 309 0.0052322716726867138
783 529 1.2586526376826052e-05
783 530 -0.010990935991964186
783 531 0.0032026378004420706
783 766 4.87890977618477e-18
783 767 0.000373121079323717
783 768 0.0019293070406392284
783 781 7.5120525229325011e-06
783 782 0.0015368092161251537
783 783 0.0821542869937507
784 82 -0.0097558858607003276
784 83 0.0019983783008871454
784 84 0.0098577010419648205
784 85 -0.016116343257892792
784 86 -0.00017844903526547057
784 87 -0.013068579459820333
784 169 -0.017044340482306419
784 170 0.00015646086420131601
784 171 0.013157967879081613
784 172 -0.013238238480218876
784 173 0.00083145929070088231
784 174 -0.010218683007751014
784 304 0.019907075113851272
784 305 -0.00066814458110046643
784 306 0.0029764871806118118
784 532 0.018787853796647991
784 533 -0.0021739202538859194
784 534 -0.0031398823203810447
784 781 -0.011668355436794613
784 782 0.0013026098221026222
784 783 -4.7162794503119443e-18
784 784 0.12957655292645126
785 82 0.00039581419832304346
785 83 -0.0015386218818931436
785 84 0.0012913601461617338
785 85 0.0014241150672986325
785 86 -0.0051162957620444352
785 87 0.00068389705014004331
785 169 0.0017590249667654189
785 170 -0.0055116508129084635
785 171 -0.00089887233566227141
785 172 -0.0007711048118632202
785 173 -0.0037441403513184804
785 174 -0.0021966318661402972
785 304 -0.00066814458110046686
785 305 0.00036667751103647967
785 306 0.01120652787145645
785 532 -0.0021739202538859199
785 533 -0.0019604430635452846
785 534 -0.011425071265410584
785 781 -0.0019025183830255819
785 782 0.0051067211822442612
785 783 0.0003533188541150862
785 784 0.013060475602821068
785 785 0.087711263770123338
786 82 0.0098577010419648205
786 83 -0.0011124860076844214
786 84 -0.012876497321149054
786 85 -0.013068579459820333
786 86 -0.0015327728185164501
786 87 -0.015962051723893811
786 169 0.013157967879081613
786 170 0.0013177975329942209
786 171 -0.01622583269556549
786 172 -0.010218683007751013
786 173 0.00020721428770585878
786 174 -0.013922055982570725
786 304 0.0029764871806118123
786 305 0.011206527871456448
786 306 -0.00057015807714894757
786 532 -0.0031398823203810451
786 533 -0.011425071265410584
786 534 -0.0010705687806838362
786 781 -5.2041704279304213e-18
786 782 0.00035331885411508815
786 783 0.0016570318451453775
786 784 0.00011529305253135148
786 785 0.00061731038756151612
786 786 0.082907532402432774
787 34 -0.010726291773220948
787 35 0.00045523879704345441
787 36 0.011126788749682476
787 37 -0.013577906955392618
787 38 -0.00074962014206905844
787 39 -0.010273434388718691
787 217 -0.015014720994109424
787 218 -0.0002445578035489166
787 219 0.010421963326420865
787 220 -0.010327402288906273
787 221 0.00064935251096665523
787 222 -0.011076737977474932
787 352 0.016529656428377427
787 353 -0.00039717904320185328
787 354 -0.00060371948978673478
787 484 0.01643236738620607
787 485 0.00029423341467622909
787 486 0.00089937551822651617
787 769 -0.017966724963206775
787 770 -0.00039503869370157628
787 771 1.0299920638612292e-18
787 787 0.10953107101929226
788 34 -0.0011473253055206481
788 35 -0.0017122316711960816
788 36 -0.00010084645690065547
788 37 0.00085294396049504385
788 38 -0.0038199083417254798
788 39 0.00099609603854604279
788 217 0.0013580062990151856
788 218 -0.004628470704924237
788 219 -0.0013993248384971441
788 220 -0.00095321159159744674
788 221 -0.0015913150319298961
788 222 0.00020305186947665142
788 352 -0.00039717904320185323
788 353 -0.0022020902464403021
788 354 0.012278003330547176
788 484 0.00029423341467622855
788 485 -0.0027310343332335174
788 486 -0.012328598386897895
788 769 0.0028100895114266276
788 770 0.0011493151204164337
788 771 0.00013653788179291792
788 787 -0.0096643821065389903
788 788 0.081867939222487029
789 34 0.011126788749682478
789 35 -0.0021040515851057828
789 36 -0.010763434825385058
789 37 -0.010273434388718692
789 38 -0.001450986755135761
789 39 -0.01527723336640013
789 217 0.010421963326420864
789 218 0.0010477579551846606
789 219 -0.015706641184310352
789 220 -0.011076737977474932
789 221 0.0022062569976817794
789 222 -0.010685653840059831
789 352 -0.00060371948978673489
789 353 0.012278003330547176
789 354 -0.0028712088297069959
789 484 0.00089937551822651563
789 485 -0.012328598386897895
789 486 -0.0029803627744573176
789 769 1.0842021724855044e-18
789 770 0.00013653788179291749
789 771 -6.0130161091992686e-05
789 787 -0.00022518033518185841
789 788 0.00020809456935202281
789 789 0.075617627882468036
790 49 -0.00028481992574920615
790 50 -0.0011868447832514798
790 51 0.0054563541957144673
790 52 -0.0056421907330143455
790 53 0.0050524338611612008
790 54 -0.00787927428830245
790 202 -0.0066975413386637928
790 203 -0.0037175336493973938
790 204 0.010224624044941552
790 205 -0.0080286043708315928
790 206 0.0048076923076923132
790 207 -0.0078979352333789152
790 496 0.0051016873942065638
790 497 -0.0099919871857066401
790 498 -0.0054951195858889577
790 499 0.0020812480725008503
790 500 0.0038951386766066373
790 501 0.0027554328739489765
790 754 -0.013268935089986691
790 755 -0.0071890549977228595
790 756 -8.6736173798840355e-19
790 778 -0.028608533502756973
790 779 0.0014669403142524022
790 780 0.0052602944072872027
790 790 0.09358002415971324
791 49 -0.0027894088858155816
791 50 0.0044594844555922303
791 51 0.0037592773920560457
791 52 0.0066549979637253037
791 53 -0.0042583243423255446
791 54 0.0077845642217862308
791 202 -0.0021149695468332909
791 203 -0.0022233290438286027
791 204 0.0024788421683916281
791 205 0.0032051282051282098
791 206 -0.012088178674337513
791 207 0.0088090617222298558
791 496 -0.0099919871857066401
791 497 0.0095025938917155245
791 498 -0.0067263556203914412
791 499 0.0038951386766066373
791 500 -0.010678727459977239
791 501 -0.014076530002758254
791 754 -0.0039839267925946545
791 755 0.0014175149342706519
791 756 -0.0011809353173508003
791 778 -0.0017381878908758024
791 779 -0.0063523139507867966
791 780 -0.0012156372377823876
791 790 -0.0012092532288845628
791 791 0.11654372752908196
792 49 0.005456354195714469
792 50 0.0013554312382098935
792 51 -0.0057411741214636863
792 52 -0.00787927428830245
792 53 0.0053807180679400785
792 54 -0.014491830289620788
792 202 0.010224624044941552
792 203 0.0048826883222377812
792 204 -0.015921415134345831
792 205 -0.0078979352333789152
792 206 0.011212907876076008
792 207 -0.02404054099440462
792 496 -0.005495119585888956
792 497 -0.0067263556203914412
792 498 0.014573712147806861
792 499 0.0027554328739489761
792 500 -0.014076530002758257
792 501 -0.0047084949609602711
792 754 -7.589415207398531e-19
792 755 -0.0011809353173507999
792 756 0.00080717895390274605
792 778 0.0052602944072872027
792 779 -0.0012156372377823874
792 780 -0.0079861443469476864
792 790 -0.0063672676381294124
792 791 -0.030168860963737273
792 792 0.099842405897066833
793 55 0.00048144523258995418
793 56 -0.00022674868597865922
793 57 0.0051599533008841797
793 58 -0.0038191368514232356
793 59 0.0013470764488676171
793 60 -0.0061354401642796652
793 196 -0.019224500303103208
793 197 2.3072294701434329e-05
793 198 0.015290596668819181
793 199 -0.0073126872405047325
793 200 0.0039691987511441132
793 201 -0.01047987516622061
793 505 0.0062271669277839028
793 506 -0.0029648494288734718
793 507 -0.0030930637899436878
793 754 -0.021466555013073256
793 755 0.0072957474557920742
793 756 0.0041571018948216559
793 772 -0.012647089679460596
793 773 -0.0071935957773005578
793 774 -1.1926223897340549e-18
793 793 0.10613166727214632
794 55 -0.0018293127885427622
794 56 0.0068450116149490065
794 57 0.0013594028634248642
794 58 0.0029496405514317196
794 59 -0.0016124383900067494
794 60 0.0049785977587937435
794 196 0.0016256363972655366
794 197 -0.0070513875227296531
794 198 -0.00088114523858374841
794 199 0.0023666346485800103
794 200 -0.0042415094173518216
794 201 0.0048035358963097099
794 505 -0.0029648494288734718
794 506 -0.012550663830190514
794 507 -0.014753905769007765
794 754 0.0040906192506638692
794 755 -0.0082448705120684238
794 756 -0.0018674372097534353
794 772 -0.0039884675721723519
794 773 0.0013631521500843112
794 774 0.00074274197129959988
794 793 0.0026160968480528606
794 794 0.10345023403160908
795 55 0.0051599533008841805
795 56 -0.0010444432904212881
795 57 -0.0046785080682942206
795 58 -0.0061354401642796652
795 59 0.0025747516049475908
795 60 -0.014878353646798168
795 196 0.015290596668819181
795 197 0.0015227009152624033
795 198 -0.020872398262745874
795 199 -0.010479875166220608
795 200 0.0072073820501558621
795 201 -0.019340398593585835
795 505 -0.0030930637899436873
795 506 -0.014753905769007765
795 507 -0.0059415348669747282
795 754 0.0041571018948216567
795 755 -0.0018674372097534353
795 756 -0.0091315224799868953
795 772 -8.6736173798840355e-19
795 773 0.00074274197129960032
795 774 0.0007729003288324531
795 793 -0.0066955954462152066
795 794 -0.0188790880991523
795 795 0.11039180050198463
796 64 -0.00072829974543709309
796 65 -0.0021566368292948892
796 66 0.0059871528491037464
796 67 -0.0054032835283245352
796 68 0.0010122939793195175
796 69 -0.0049054991487297445
796 187 0.0013199423089951684
796 188 -0.00055378050933693247
796 189 0.004370731587858054
796 190 -0.023164062363779759
796 191 -0.0052579054478173876
796 192 -0.0050032983566159813
796 514 0.024379003346241143
796 515 0.0016262492502688549
796 516 -0.0033613934094231523
796 757 -0.013786948160582759
796 758 -0.001865788018452797
796 759 5.9631119486702744e-18
796 760 -0.017477774153492324
796 761 -0.0070242757338175206
796 762 0.00083664469091371794
796 796 0.10070641537639388
797 64 -0.0037592009318589926
797 65 0.0034381037400739241
797 66 0.0038908128898033369
797 67 0.0026148580818836208
797 68 -0.0055832102488329559
797 69 0.0061372401253804599
797 187 0.0010487835932271694
797 188 0.0089905296693411421
797 189 0.0015499288185837534
797 190 -0.0068604695503814896
797 191 -0.016275992567831216
797 192 -0.0030882270477352314
797 514 0.0016262492502688549
797 515 0.010413945413348561
797 516 -0.010831352588670871
797 757 -0.0050709162235810044
797 758 0.0026364806553422658
797 759 0.00052424568791666006
797 760 -0.003819147528689316
797 761 -0.0010302451102660473
797 762 0.0004784194376058913
797 796 0.013399198880528273
797 797 0.11102862005682129
798 64 0.0059871528491037464
798 65 0.0014869667359571847
798 66 -0.0067154525945408439
798 67 -0.0049054991487297453
798 68 0.0037333939715343089
798 69 -0.018134461814687697
798 187 0.0043707315878580531
798 188 0.0039537749724299059
798 189 -0.0030507892788628841
798 190 -0.0050032983566159813
798 191 -0.0006843808938890787
798 192 -0.024541864555695285
798 514 -0.0033613934094231515
798 515 -0.010831352588670873
798 516 0.013822573949280784
798 757 6.3967928176644762e-18
798 758 0.00052424568791665767
798 759 0.0011809339621766182
798 760 0.00083664469091371773
798 761 0.00047841943760589109
798 762 -0.0011607387643413486
798 796 -0.0043515146270504679
798 797 -0.011682380394475307
798 798 0.0897835281995885
799 70 0.00045213500991210477
799 71 0.00054641919731507403
799 72 0.0051645239193963619
799 73 -0.0033604847092185623
799 74 0.0013744155615922941
799 75 -0.0065561887542248867
799 181 -0.0046730963440597163
799 182 0.0039480406666044018
799 183 0.0062874534858284089
799 184 0.00051918223253582076
799 185 -0.0012647986233007998
799 186 -0.0047838134659419392
799 760 -0.016246636688859478
799 761 -0.0022282135062579225
799 762 -0.00045178025591529323
799 763 -0.010295400885271758
799 764 -0.0024156147720508104
799 765 -5.6378512969246231e-18
799 799 0.064881186854993819
800 70 -0.0010561449052490285
800 71 0.0067469964540887214
800 72 0.00053026549180152423
800 73 0.0029769796641563964
800 74 -0.0002503518150933806
800 75 0.0057518757304217093
800 181 0.0055506047691685047
800 182 -0.0054429969746693134
800 183 -0.0083949133545122949
800 184 -0.0028673627258649021
800 185 0.006600951279817315
800 186 -0.0029630563820295065
800 760 -0.0054333417113861275
800 761 0.0011718947456373094
800 762 0.00047135093624816471
800 763 0.00078951343307739549
800 764 0.0061310700563654433
800 765 0.0004989876845474361
800 799 4.7499805023293144e-05
800 800 0.094360919932017895
801 70 0.0051645239193963619
801 71 -0.0018735806620446278
801 72 -0.0047123889094842497
801 73 -0.0065561887542248849
801 74 0.0033480295765755575
801 75 -0.011708017030688227
801 181 0.0062874534858284089
801 182 -0.0059910672006661409
801 183 -0.012358620528836704
801 184 -0.0047838134659419392
801 185 -0.00055921022818335262
801 186 -0.0042646312334061161
801 760 -0.00045178025591529312
801 761 0.00047135093624816476
801 762 -0.0003689562716485134
801 763 -5.4210108624275222e-18
801 764 0.00049898768454743458
801 765 0.0021060618073213497
801 799 0.00065519896672997218
801 800 0.005323587581749281
801 801 0.062666940161125242
802 85 -0.016120018342372311
802 86 0.00026292656669295279
802 87 0.013564641830648889
802 88 -0.0093840741299754914
802 89 -0.0010522090428756155
802 90 -0.010592379496451847
802 166 -0.0096668013768134234
802 167 -0.00091142329234747519
802 168 0.010635360574350232
802 169 -0.017019836802293794
802 170 -7.1561997692765956e-05
802 171 -0.013683369944244819
802 301 0.015255907759220044
802 302 0.00088439781872170478
802 303 -0.0030657707333536744
802 535 0.015694026718476917
802 536 0.00088487122012105872
802 537 0.0029566002529641221
802 784 -0.028863550959856016
802 785 0.0020549887187854159
802 786 -2.1684043449710089e-19
802 802 0.11299963661990581
803 85 -0.001339637535871149
803 86 -0.005769603799722467
803 87 0.00014309018947160566
803 88 0.00055035505968848721
803 89 -0.00097070723762871652
803 90 -0.00046067954520699476
803 166 0.00069114081021662711
803 167 -0.0010395054345417373
803 168 0.00038008009058382948
803 169 -0.0016741261002568679
803 170 -0.0061317939206616571
803 171 -0.00043383492609278505
803 301 0.00088439781872170446
803 302 -0.003373249063482337
803 303 0.013382254141213676
803 535 0.00088487122012105839
803 536 -0.0039585456293982167
803 537 -0.013580285557971321
803 784 -0.0011501394863427886
803 785 -0.0033128768191513251
803 786 9.584709809596758e-05
803 802 -0.0016569778064390423
803 803 0.07711727705426831
804 85 0.013564641830648889
804 86 -0.0023039926042101983
804 87 -0.01972947368562878
804 88 -0.010592379496451847
804 89 -0.0024638846734121225
804 90 -0.010374198289682043
804 166 0.010635360574350232
804 167 0.0023832852187889572
804 168 -0.010419913157997025
804 169 -0.013683369944244819
804 170 0.0020132478675890212
804 171 -0.019954312775387756
804 301 -0.0030657707333536731
804 302 0.013382254141213674
804 303 -0.0069932070085697096
804 535 0.0029566002529641221
804 536 -0.013580285557971321
804 537 -0.006832189383259411
804 784 2.1684043449710089e-19
804 785 9.5847098095968013e-05
804 786 -0.0015393684559182196
804 802 0.00012302589335214456
804 803 0.00029076895719297707
804 804 0.083803296480885484
805 4 -0.0052941112240135263
805 5 0.00080128205128204692
805 6 0.0084776658805466344
805 16 -0.0053407219152971884
805 17 0.00083539766767648429
805 18 -0.0084653779902341859
805 34 -0.019995715671503312
805 35 0.00058420142942212927
805 36 -0.011012148523945629
805 220 -0.018961934772259905
805 221 0.00039526433821969562
805 222 0.011017514211261466
805 292 -0.02243589743589745
805 293 0.0096153846153846159
805 294 0
805 421 0.017271004165638967
805 422 -0.0012187355150128471
805 423 0.0024447897837358095
805 610 0.016698034056494671
805 611 -0.0013960253269542069
805 612 -0.0026432662425535771
805 676 -0.019791310557401
805 677 -0.024513717475234131
805 678 7.0201421391013759e-05
805 787 -0.024685995847304593
805 788 0.001763329025587638
805 789 -1.4094628242311558e-18
805 805 0.10668087935068014
806 4 -0.00080128205128205592
806 5 0.0027187092888069867
806 6 -0.00073707770919695566
806 16 -0.00076716643488761811
806 17 0.0026720985975233228
806 18 0.00079083537727916747
806 34 0.0021867655319862309
806 35 -0.0071802088718843065
806 36 0.0010698270110406122
806 220 0.0019978284407837993
806 221 -0.0067086039523111349
806 222 -0.00093832474344533344
806 292 0.00641025641025641
806 293 -0.0064102564102564144
806 294 0
806 421 -0.0012187355150128463
806 422 -0.0036760095218150795
806 423 0.012389481995546518
806 610 -0.0013960253269542067
806 611 -0.0034467798052894953
806 612 -0.012290305609674649
806 676 -0.024513717475234127
806 677 -0.018799792987862898
806 678 5.7796858837499748e-05
806 787 0.004968457230715843
806 788 -0.0026746319688594391
806 789 -4.8907708103143339e-05
806 805 -0.0062255537447437406
806 806 0.081640989210687714
807 4 0.0084776658805466327
807 5 -0.0023396418117610594
807 6 -0.0045069533866114522
807 16 -0.0084653779902341859
807 17 0.0023933994798432711
807 18 -0.0044824549159348647
807 34 -0.011012148523945628
807 35 -0.0015211954279952019
807 36 -0.018901971789537474
807 220 0.011017514211261466
807 221 0.0016526976955904809
807 222 -0.018683133848885643
807 292 0
807 293 0
807 294 -0.0064102564102564144
807 421 0.0024447897837358091
807 422 0.012389481995546518
807 423 -0.003996437349207356
807 610 -0.0026432662425535779
807 611 -0.012290305609674647
807 612 -0.0040824443376403117
807 676 7.0201421391014301e-05
807 677 5.7796858837499802e-05
807 678 -0.002257187731271744
807 787 -1.3010426069826053e-18
807 788 -4.8907708103143122e-05
807 789 -0.0024491454915185123
807 805 2.6847537764662535e-05
807 806 -0.00020629805449254475
807 807 0.074940909667888994
808 1 -0.0053407219152971884
808 2 -0.00083539766767648472
808 3 -0.0084653779902341859
808 13 -0.0052941112240135245
808 14 -0.00080128205128204605
808 15 0.0084776658805466344
808 88 -0.019708463631919665
808 89 -0.00075573885501081827
808 90 0.0099678607745258205
808 166 -0.020652146432232909
808 167 -0.00090288969504215516
808 168 -0.0099334130861443298
808 298 -0.02243589743589745
808 299 -0.0096153846153846159
808 300 0
808 427 0.018172913759913829
808 428 0.0017311831454445983
808 429 -0.0015626713798214272
808 604 0.018665261936472215
808 605 0.0015634760246971396
808 606 0.0013966021862346434
808 745 -0.017105634814308018
808 746 0.023943435218809029
808 747 5.4524659587051449e-05
808 802 -0.022053864984795037
808 803 -0.0029939688011624711
808 804 -9.9746599868666408e-18
808 808 0.10702340900418603
809 1 0.00076716643488761789
809 2 0.0026720985975233246
809 3 -0.00079083537727916791
809 13 0.00080128205128205711
809 14 0.0027187092888069902
809 15 0.00073707770919695164
809 88 -0.0023583029575749205
809 89 -0.0068608726507985891
809 90 0.0014134186606335896
809 166 -0.0025054537976062579
809 167 -0.0073077491612585149
809 168 -0.0014919927483126279
809 298 -0.00641025641025641
809 299 -0.0064102564102564144
809 300 0
809 427 0.0017311831454445976
809 428 -0.0025951517262176446
809 429 0.01185650913233096
809 604 0.0015634760246971396
809 605 -0.0027817272872666639
809 606 -0.011926489633293246
809 745 0.023943435218809025
809 746 -0.017048670516133738
809 747 -6.0621831108380103e-05
809 802 -0.0061990970062906769
809 803 -0.002326370624596689
809 804 3.6897857052432641e-05
809 808 0.010357950855727351
809 809 0.085281926687047871
810 1 -0.0084653779902341859
810 2 -0.0023933994798432719
810 3 -0.0044824549159348638
810 13 0.0084776658805466344
810 14 0.0023396418117610542
810 15 -0.0045069533866114444
810 88 0.0099678607745258222
810 89 -0.0011776037784022256
810 90 -0.01773765423423114
810 166 -0.0099334130861443298
810 167 0.001099029690723187
810 168 -0.017951642147159837
810 298 0
810 299 0
810 300 -0.0064102564102564144
810 427 -0.0015626713798214276
810 428 0.01185650913233096
810 429 -0.0024606339534487616
810 604 0.0013966021862346439
810 605 -0.011926489633293244
810 606 -0.0023908254488183753
810 745 5.4524659587051557e-05
810 746 -6.0621831108380428e-05
810 747 -0.0017512958417078904
810 802 -9.9746599868666408e-18
810 803 3.6897857052434592e-05
810 804 -0.0021712532497477313
810 808 -1.5822311614422171e-05
810 809 0.00014705955443459345
810 810 0.07289576155525071
811 163 -0.0014881022459224075
811 164 0.00026074422696915813
811 165 -0.0097625972290067455
811 223 0.019555988662222284
811 224 0.00057443823609173864
811 225 -0.00016650435349724129
811 361 -3.0759802370180708e-05
811 362 0.0036970912673814534
811 363 -0.010976812806607079
811 424 0.0063122147735385839
811 425 -0.005285365749332813
811 426 0.0099910697508561533
811 595 -0.030397580508757818
811 596 0.0073637216246136067
811 597 0.023434405062358228
811 598 -0.015099707089839015
811 599 0.0036255089564627948
811 600 -0.010841525215109754
811 613 -0.027413566615282447
811 614 -0.0041212961029297229
811 615 -0.010891332566375778
811 616 -0.00098341269613325577
811 617 -0.0081926054574253324
811 618 0.0094860324620344109
811 670 -0.012047687133386629
811 671 0.012872670910426704
811 672 0.0016483694504332792
811 673 -0.03568747153909145
811 674 -0.010041571114495522
811 675 0.0070303354934156811
811 730 -0.0099711395242834729
811 731 0.019405312377023618
811 732 -0.0048772910839009294
811 736 -0.012516709631561044
811 737 -0.013348299322996119
811 738 0.0049289528548564394
811 811 0.20217888705894588
812 163 0.0002607442269691584
812 164 0.020073912427575145
812 165 -0.00029132705525375423
812 223 0.00057443823609173842
812 224 -0.0018986357638300492
812 225 -0.010418073521438299
812 361 0.0036970912673814529
812 362 0.0036518860804737067
812 363 0.0044956461595144735
812 424 -0.0052853657493328139
812 425 0.011935302521554277
812 426 0.00461491282747743
812 595 0.0073637216246136075
812 596 -0.016404834535622703
812 597 -0.0091461671626501227
812 598 0.0036255089564627943
812 599 -0.018742365967943025
812 600 0.0177114435605998
812 613 -0.0041212961029297229
812 614 -0.027265810656746454
812 615 -0.010889781301753044
812 616 -0.0081926054574253306
812 617 0.00045669027976805534
812 618 0.010279133161881946
812 670 0.012872670910426705
812 671 -0.0033067848580234449
812 672 -0.0042582634584423561
812 673 -0.010041571114495522
812 674 -0.012592975520945229
812 675 0.0058614737923393286
812 730 0.019405312377023622
812 731 -0.017905862475467299
812 732 0.0014874100857717805
812 736 -0.01334829932299612
812 737 -0.038141942235460913
812 738 0.0080467766060645651
812 811 -0.011852201371158741
812 812 0.20024039673072927
813 163 -0.0097625972290067455
813 164 -0.0002913270552537538
813 165 0.0047809661944465121
813 223 -0.00016650435349724123
813 224 -0.010418073521438297
813 225 0.004606687002240914
813 361 -0.010976812806607079
813 362 0.0044956461595144744
813 363 -0.018800955428568904
813 424 0.0099910697508561533
813 425 0.0046149128274774283
813 426 -0.009440803057115173
813 595 0.023434405062358225
813 596 -0.0091461671626501227
813 597 -0.038842277667022237
813 598 -0.010841525215109758
813 599 0.017711443560599796
813 600 -0.039395500712159193
813 613 -0.01089133256637578
813 614 -0.010889781301753044
813 615 -0.034630695751555189
813 616 0.0094860324620344109
813 617 0.010279133161881945
813 618 -0.0021032840880887797
813 670 0.0016483694504332801
813 671 -0.0042582634584423561
813 672 0.0085100751107115222
813 673 0.0070303354934156794
813 674 0.0058614737923393277
813 675 -0.011448237885628369
813 730 -0.0048772910839009302
813 731 0.0014874100857717809
813 732 0.0025307196608002369
813 736 0.0049289528548564394
813 737 0.0080467766060645651
813 738 -0.0085292447153129305
813 811 -0.00059914668309017042
813 812 0.0064346609778758099
813 813 0.20620593286228561
814 160 -0.0077604945640375768
814 161 0.00019131903582574178
814 162 -0.011116160876479004
814 598 -0.010249171607685738
814 599 -0.0051240517983649515
814 600 -0.0037300088124552762
814 601 -0.017919095686309734
814 602 0.00075586140389995323
814 603 0.00055459860300597708
814 616 -0.0060948911317979075
814 617 0.0021180259495895315
814 618 0.011266661164186009
814 667 -0.021671545469332379
814 668 0.015596365699145982
814 669 0.0081810661936137265
814 670 -0.01967007710689829
814 671 -0.016292135009662662
814 672 0.004684636811624926
814 811 -0.0131552693893437
814 812 0.012506103791327786
814 813 -0.0012428875038637027
814 814 0.13479812830264878
815 160 0.0001913190358257418
815 161 0.012008851546129126
815 162 4.2360452484204152e-05
815 598 -0.0051240517983649515
815 599 -0.024791397815710967
815 600 -0.020837222416287795
815 601 0.00075586140389995236
815 602 -0.04347736933188108
815 603 0.023911419014575809
815 616 0.0021180259495895315
815 617 0.0098863670736773993
815 618 -0.00071611984326152818
815 667 0.01559636569914598
815 668 -0.017284454491914042
815 669 -0.0057215588351332176
815 670 -0.016292135009662662
815 671 -0.016141110981998146
815 672 0.0048171593570289677
815 811 0.012506103791327786
815 812 -0.034459726020091556
815 813 0.0057688842172783578
815 814 -0.0019242478121587886
815 815 0.16042643665882378
816 160 -0.011116160876479002
816 161 4.2360452484204762e-05
816 162 -0.0030794637438132412
816 598 -0.0037300088124552757
816 599 -0.020837222416287791
816 600 -0.034105192045372719
816 601 0.00055459860300597621
816 602 0.023911419014575809
816 603 -0.03966316204362097
816 616 0.011266661164186009
816 617 -0.00071611984326152818
816 618 0.0031621389224201612
816 667 0.0081810661936137265
816 668 -0.0057215588351332194
816 669 -0.012420285902737966
816 670 0.004684636811624926
816 671 0.0048171593570289677
816 672 -0.0015632137730065567
816 811 -0.001242887503863704
816 812 0.0057688842172783578
816 813 -0.0014723580657085189
816 814 0.0077335458089014628
816 815 -0.0043358775421991937
816 816 0.16342801253058242
817 142 0.021110869437135395
817 143 0.00037930500709317574
817 144 0.00048737812464969146
817 226 0.023845595547293805
817 227 0.00018674846358392058
817 228 -0.00024878169943782667
817 361 -0.026798084991963393
817 362 -0.0069993059650916298
817 363 0.021762582144023296
817 364 -0.035758321633072639
817 365 0.0071679239231817815
817 366 -0.023960383018761959
817 436 -0.004437643052915558
817 437 0.0050674627406645687
817 438 0.0063481313727401061
817 469 0.0092208415533831852
817 470 -0.0091496721423318574
817 471 -0.0081112086949049686
817 592 -0.020430124659074275
817 593 0.00024137082997871987
817 594 0.023325941121865174
817 595 -0.0094004786482963856
817 596 -0.0034516129558814423
817 597 -0.016157809903497404
817 616 0.008168987849486135
817 617 0.0029583682022062477
817 618 -0.0068132002676378253
817 712 -0.021347225259805837
817 713 0.02186261314408261
817 714 0.00030969233044130656
817 730 -0.021160081665060754
817 731 -0.022367799961852737
817 732 -0.00079762341172311493
817 811 -0.056314530238380858
817 812 -0.0036437375724277738
817 813 -0.012178270672586318
817 817 0.23812414536415155
818 142 0.00037930500709317563
818 143 -6.445060138800631e-05
818 144 0.011164147077797153
818 226 0.00018674846358392085
818 227 0.0028205042133313406
818 228 -0.010499802029716876
818 361 -0.0069993059650916307
818 362 -0.013585738114323016
818 363 0.0082006306375551671
818 364 0.0071679239231817807
818 365 -0.024521988435587481
818 366 0.011498444593339397
818 436 0.0050674627406645687
818 437 -0.017613466054967275
818 438 -0.019625809598227753
818 469 -0.0091496721423318574
818 470 0.010550926467230643
818 471 -0.0087107450205703915
818 592 0.00024137082997871965
818 593 -0.0073412049363272332
818 594 -0.00090690449136614486
818 595 -0.0034516129558814427
818 596 -0.0026051615140665471
818 597 -0.0049649103070971128
818 616 0.0029583682022062468
818 617 -0.0044122174459965179
818 618 0.014844538985629378
818 712 0.02186261314408261
818 713 -0.02607094093172934
818 714 -4.5106827655492805e-06
818 730 -0.022367799961852741
818 731 -0.028429047499383762
818 732 -0.00029434568527848674
818 811 -0.0036437375724277725
818 812 -0.014744348036922221
818 813 0.00098910023662771712
818 817 -0.003338958345622125
818 818 0.186709060052971
819 142 0.00048737812464969129
819 143 0.011164147077797153
819 144 0.0027623843514835455
819 226 -0.00024878169943782667
819 227 -0.010499802029716876
819 228 0.0044196217431417637
819 361 0.021762582144023296
819 362 0.0082006306375551688
819 363 -0.031250779261588132
819 364 -0.023960383018761959
819 365 0.0114984445933394
819 366 -0.051029223347424976
819 436 0.0063481313727401078
819 437 -0.01962580959822775
819 438 -0.024377625687705219
819 469 -0.0081112086949049686
819 470 -0.0087107450205703933
819 471 0.0054222576037767697
819 592 0.023325941121865177
819 593 -0.00090690449136614443
819 594 -0.034121403482884165
819 595 -0.016157809903497404
819 596 -0.004964910307097112
819 597 -0.020976176112743581
819 616 -0.0068132002676378261
819 617 0.014844538985629379
819 618 -0.014340624526295013
819 712 0.00030969233044130667
819 713 -4.510682765549931e-06
819 714 -0.0052339530675800253
819 730 -0.00079762341172311482
819 731 -0.00029434568527848749
819 732 -0.0051084140622180496
819 811 -0.012178270672586318
819 812 0.00098910023662771712
819 813 -0.016219217690314116
819 817 -0.0024654415514297578
819 818 -0.010617901210387149
819 819 0.19893147778990289
820 34 0.023394544220841536
820 35 -0.0010219091285831902
820 36 -0.00011270671482637519
820 157 0.00075326843617117998
820 158 -0.0004781372868228051
820 159 -0.010075450844448665
820 220 0.022718221454012852
820 221 -0.0010628503027993361
820 222 6.025749814578805e-05
820 352 -0.016903487776238374
820 353 0.00021288062272681936
820 354 -0.01948794962505275
820 355 -0.014193965068855327
820 356 -0.0041189606005391857
820 357 0.0054133850584752339
820 421 -0.016607421390383733
820 422 0.0055354321096981246
820 423 0.013134581824451276
820 484 -0.018684707248195286
820 485 -0.00056258025230993718
820 486 0.020413510944785329
820 601 -0.0034148571880486811
820 602 -0.00027816400935256583
820 603 -9.3203711455504788e-05
820 610 -0.024052364545879935
820 611 0.0023878492301477841
820 612 -0.010103564524538452
820 667 -0.028002538926847387
820 668 -0.017982122940860788
820 669 0.00017305485143463153
820 676 -0.04356211485212963
820 677 0.01516335234232459
820 678 0.0077420182681040978
820 787 -0.01426110734640347
820 788 -0.021516452694289055
820 789 -9.5363151811780488e-05
820 805 -0.024144230149136817
820 806 0.019359172934372313
820 807 8.3773922033806387e-05
820 814 0.0039070825501159329
820 815 -0.0019675807939468805
820 816 -0.0014084288087391757
820 820 0.21894172257155056
821 34 -0.0010219091285831906
821 35 0.0019331526739116893
821 36 -0.0099861213650489986
821 157 -0.00047813728682280488
821 158 0.021544433911597324
821 159 0.00022688165910373536
821 220 -0.0010628503027993368
821 221 0.0013624397853389575
821 222 0.010096943512729386
821 352 0.00021288062272681936
821 353 -0.0006667528818308224
821 354 0.00027018880588718867
821 355 -0.0041189606005391857
821 356 -0.015003862614980192
821 357 0.012681049901201471
821 421 0.0055354321096981237
821 422 -0.0053075163777967496
821 423 -0.0066285217091456034
821 484 -0.00056258025230993686
821 485 -0.0011420517291642251
821 486 3.0341707529247348e-05
821 601 -0.00027816400935256556
821 602 -0.014727808337973323
821 603 -0.017734876459283126
821 610 0.0023878492301477841
821 611 -0.02359700771343223
821 612 0.010047241276544508
821 667 -0.017982122940860792
821 668 -0.0098383460676844305
821 669 0.0040149719605846578
821 676 0.015163352342324592
821 677 -0.017134976631378432
821 678 -0.0040019570033650639
821 787 -0.021516452694289055
821 788 -0.022102481073580305
821 789 -2.622346280872572e-05
821 805 0.01935917293437231
821 806 -0.03813551357873924
821 807 -8.7027417791170954e-05
821 814 -0.0019675807939468805
821 815 -0.01950287222827627
821 816 -0.0093893681992483803
821 820 -0.019427809349822012
821 821 0.18405871441296626
822 34 -0.000112706714826376
822 35 -0.0099861213650489986
822 36 0.0053324918409117655
822 157 -0.010075450844448663
822 158 0.00022688165910373547
822 159 0.0046566063158720358
822 220 6.0257498145788917e-05
822 221 0.010096943512729386
822 222 0.0050931797794918597
822 352 -0.01948794962505275
822 353 0.00027018880588718856
822 354 -0.022556554187610225
822 355 0.0054133850584752348
822 356 0.012681049901201471
822 357 -0.037161932565023002
822 421 0.013134581824451276
822 422 -0.0066285217091456034
822 423 -0.021600019684648922
822 484 0.020413510944785326
822 485 3.0341707529248107e-05
822 486 -0.023828266668290417
822 601 -9.3203711455504355e-05
822 602 -0.017734876459283129
822 603 -0.025564031948543918
822 610 -0.01010356452453845
822 611 0.01004724127654451
822 612 -0.030368096867954587
822 667 0.00017305485143463218
822 668 0.0040149719605846569
822 669 0.00029127144587550607
822 676 0.0077420182681040986
822 677 -0.0040019570033650639
822 678 -0.011323460869490596
822 787 -9.5363151811780596e-05
822 788 -2.622346280872572e-05
822 789 -0.0019524456829644067
822 805 8.377392203380617e-05
822 806 -8.7027417791171605e-05
822 807 -0.0091709244070252213
822 814 -0.001408428808739175
822 815 -0.0093893681992483786
822 816 -0.0071924388619135568
822 820 -0.0063335491421498188
822 821 0.0032595288170740254
822 822 0.17911387549739663
823 139 0.019344375421444696
823 140 0.0041802018907630455
823 141 -0.00010729771886976093
823 229 0.014040674165818348
823 230 0.00065797077332116634
823 231 0.00028565601340252021
823 364 -0.004787385567063338
823 365 -0.0012240677771781089
823 366 0.00764393124113091
823 589 -0.039968488806917744
823 590 -0.0028515568090965973
823 591 0.018732097762518052
823 592 -0.04581364420009295
823 593 0.00068055423187681863
823 594 -0.02853263695395741
823 646 0.015171220333658185
823 647 -0.0051156953808687159
823 648 0.0041208172427342898
823 709 -0.017061700404415705
823 710 0.019927675634498019
823 711 0.0027010665099210587
823 712 -0.03880074735293261
823 713 -0.027200122561021046
823 714 0.0010799312919169814
823 817 -0.047126721459656871
823 818 0.0076981934237596453
823 819 0.0066879274129862838
823 823 0.23547959922575321
824 139 0.0041802018907630446
824 140 0.008331200261164514
824 141 0.011687203652889317
824 229 0.00065797077332116591
824 230 -0.0057949157242175777
824 231 -0.012490563861964902
824 364 -0.0012240677771781087
824 365 0.0012945388964575978
824 366 -0.0057481488513235028
824 589 -0.0028515568090965956
824 590 -0.023256476216093412
824 591 0.0023236191276259769
824 592 0.00068055423187681863
824 593 -0.016510697793111245
824 594 0.0003343516801158357
824 646 -0.005115695380868715
824 647 -0.0031865860601407855
824 648 0.0089586715349089067
824 709 0.019927675634498019
824 710 -0.027573549879349839
824 711 -0.0013341940055058372
824 712 -0.027200122561021049
824 713 -0.038016835378784718
824 714 0.00052659440902106454
824 817 0.0076981934237596453
824 818 -0.013535147598015801
824 819 -0.00079375332363629367
824 823 0.019596392192604763
824 824 0.18129701258307293
825 139 -0.00010729771886976072
825 140 0.011687203652889317
825 141 0.001756675483552562
825 229 0.00028565601340251967
825 230 -0.012490563861964902
825 231 -0.0046586923904897689
825 364 0.0076439312411309109
825 365 -0.0057481488513235019
825 366 -0.022097858078970294
825 589 0.018732097762518052
825 590 0.0023236191276259769
825 591 -0.038381830000721144
825 592 -0.028532636953957406
825 593 0.00033435168011583543
825 594 -0.041667037650798051
825 646 0.0041208172427342898
825 647 0.0089586715349089067
825 648 0.001368433459434229
825 709 0.00270106650992106
825 710 -0.0013341940055058357
825 711 -0.0041992811989727706
825 712 0.0010799312919169803
825 713 0.00052659440902106443
825 714 -0.012391391044857132
825 817 0.0066879274129862838
825 818 -0.00079375332363629324
825 819 -0.012976675542166321
825 823 0.016583598207196973
825 824 0.013218267887932891
825 825 0.18165134333224131
826 346 0.0069658559451487882
826 347 -0.0097459389473789557
826 348 -0.00962930837376514
826 349 -0.0059122188048523752
826 350 0.0068881772487163267
826 351 0.0098419839164712968
826 436 0.0010621206203138408
826 437 -0.0065931028485052175
826 438 0.015207996757845673
826 469 -0.013328690865214368
826 470 0.0059652232611544058
826 471 -0.013992710381980264
826 487 -0.0081805372880380152
826 488 0.0080137889014358435
826 489 -0.010707276327561747
826 490 0.0050326219667723212
826 491 -0.0084534766784430688
826 492 0.0098110123961742159
826 592 0.019917048722826007
826 593 -0.0027490874711267664
826 594 -0.0035342407679908837
826 616 -0.015786572191639005
826 617 -0.0045686903882230625
826 618 -0.019230348950318311
826 646 -0.040650673663037901
826 647 0.0075269556510718745
826 648 0.024316146854158352
826 817 -0.020717953561093121
826 818 -0.019837429068546457
826 819 0.0066112524260268498
826 823 0.0055249818627113841
826 824 0.011286633931492741
826 825 -0.00012243287090652952
826 826 0.23375675596823176
827 346 -0.0097459389473789574
827 347 0.012269224368370441
827 348 -0.0077282409426202969
827 349 0.0068881772487163285
827 350 -0.014700440364447377
827 351 -0.016742105682618153
827 436 -0.0065931028485052175
827 437 0.011309650558379066
827 438 0.0024794350570522209
827 469 0.0059652232611544058
827 470 -0.017552801047787139
827 471 0.018023898373374845
827 487 0.0080137889014358452
827 488 -0.015944606154549085
827 489 0.017649351078903718
827 490 -0.0084534766784430705
827 491 0.010296843031663968
827 492 0.0077552950653967069
827 592 -0.0027490874711267668
827 593 0.00094823222195352817
827 594 -0.01149546699678407
827 616 -0.0045686903882230616
827 617 0.00015290784261157327
827 618 -0.0022343376564412654
827 646 0.0075269556510718753
827 647 -0.027153719229149643
827 648 -0.012039443462727385
827 817 -0.019837429068546457
827 818 -0.035770380158799825
827 819 0.010165399597058585
827 823 0.011286633931492741
827 824 -0.0071843048722160605
827 825 -0.0011931217286762785
827 826 -0.022349822126015814
827 827 0.20064660748571472
828 346 -0.00962930837376514
828 347 -0.0077282409426202969
828 348 0.0049624659813253509
828 349 0.0098419839164712985
828 350 -0.016742105682618157
828 351 -0.020029709886233749
828 436 0.015207996757845673
828 437 0.0024794350570522205
828 438 -0.0058869341317480351
828 469 -0.013992710381980265
828 470 0.018023898373374845
828 471 -0.039808377423009966
828 487 -0.010707276327561749
828 488 0.017649351078903718
828 489 -0.023244861987677761
828 490 0.0098110123961742159
828 491 0.007755295065396706
828 492 0.0044515518890212444
828 592 -0.0035342407679908846
828 593 -0.01149546699678407
828 594 0.0038271324370012733
828 616 -0.019230348950318315
828 617 -0.0022343376564412654
828 618 -0.017017943165245054
828 646 0.024316146854158352
828 647 -0.012039443462727381
828 648 -0.052835927591471994
828 817 0.0066112524260268498
828 818 0.010165399597058585
828 819 -0.014224543114424748
828 823 -0.00012243287090652898
828 824 -0.0011931217286762783
828 825 0.012076819743851601
828 826 -0.0016694876233258036
828 827 -0.010892971798477747
828 828 0.19482067473199027
829 232 0.010074839603820499
829 233 -4.0316664118972799e-07
829 234 -0.00019437212054820787
829 586 -0.051602764083745062
829 587 -0.00095423547063594829
829 588 0.027443047913205842
829 589 -0.039856503355007872
829 590 5.1464304790829925e-05
829 591 -0.025896472533403131
829 628 0.009313723097753808
829 629 0.0021777405709254975
829 630 0.00075390211536299604
829 694 -0.013948951436857636
829 695 0.014298984579442668
829 696 -0.0033393116006547696
829 709 -0.01193321606890347
829 710 -0.014093971124283542
829 711 0.0024702259580595132
829 823 -0.015214185793409038
829 824 -0.0034354365108140907
829 825 0.0027198988341450583
829 829 0.17625428577114538
830 232 -4.0316664118983641e-07
830 233 -0.0095622209495989825
830 234 -0.013224786220257028
830 586 -0.00095423547063594894
830 587 -0.016721129174186618
830 588 0.00097495839626063232
830 589 5.1464304790829925e-05
830 590 -0.02033381228811687
830 591 -0.00031827521612675345
830 628 0.0021777405709254988
830 629 -0.014129625798898818
830 630 0.012245894330252756
830 694 0.014298984579442666
830 695 -0.020000590267649533
830 696 0.0060284108945157129
830 709 -0.014093971124283542
830 710 -0.018214444455225989
830 711 0.0034938903825143947
830 823 -0.0034354365108140907
830 824 0.0087133236292221972
830 825 1.8680675024464362e-05
830 829 0.0035992774194901211
830 830 0.14303844405262037
831 232 -0.00019437212054820879
831 233 -0.013224786220257032
831 234 -0.0073766078850182222
831 586 0.027443047913205842
831 587 0.00097495839626063157
831 588 -0.041784400526634666
831 589 -0.025896472533403134
831 590 -0.00031827521612675389
831 591 -0.046666708257896983
831 628 0.00075390211536299594
831 629 0.012245894330252756
831 630 0.00018724667453360916
831 694 -0.00333931160065477
831 695 0.006028410894515712
831 696 -0.005209632362379913
831 709 0.0024702259580595132
831 710 0.0034938903825143938
831 711 0.0028529527048354523
831 823 0.0027198988341450578
831 824 1.8680675024465663e-05
831 825 0.010043467897424913
831 829 -0.0044958934720300712
831 830 0.00058269034820466678
831 831 0.19265908126356715
832 364 -0.0019055047792727806
832 365 -0.010535207840798352
832 366 0.0091547600479447242
832 367 -0.010435536200946812
832 368 0.0067617610644967316
832 369 -0.011586774154472386
832 466 -0.0022532191642387748
832 467 -0.0089147819529159598
832 468 -0.012237312242639461
832 469 -0.025868340756105057
832 470 0.013146547722485618
832 471 0.015326822968692342
832 589 0.018138512996538389
832 590 0.00089046801477689536
832 591 0.0017782355367101676
832 628 -0.00064005223065773153
832 629 -0.0057915118028199208
832 630 0.013532224778013321
832 646 0.0010114990181121712
832 647 0.0055549477510934931
832 648 -0.012309219968343946
832 817 -0.019776166210627256
832 818 -0.00068634999814991271
832 819 -0.0017748428326367113
832 823 -0.048917036702391468
832 824 -0.02073083764758106
832 825 -0.010489088794006672
832 826 -0.040120569391930198
832 827 0.01698753046433138
832 828 -0.0062432740066229427
832 829 -0.0089370860678853765
832 830 0.012737626520280732
832 831 0.0074444622160040269
832 832 0.18939749958977864
833 364 -0.010535207840798352
833 365 -0.0098715962058720293
833 366 0.0099126698472120113
833 367 0.0067617610644967307
833 368 -0.0081570857275054445
833 369 0.015871399434746875
833 466 -0.0089147819529159615
833 467 0.0040006071958952651
833 468 -0.0084853212486427076
833 469 0.013146547722485618
833 470 -0.03612941049625798
833 471 -0.022436038993726499
833 589 0.00089046801477689504
833 590 0.0072510381706607074
833 591 -0.010756846800176084
833 628 -0.0057915118028199191
833 629 0.011004144497055392
833 630 0.0060271462721508302
833 646 0.0055549477510934931
833 647 -0.00058293563039191806
833 648 0.0084571104389707941
833 817 -0.00068634999814991314
833 818 0.0056255553556357838
833 819 -0.0022176094366074236
833 823 -0.020730837647581053
833 824 -0.05865737368697925
833 825 -0.014103088041773494
833 826 0.01698753046433138
833 827 -0.032515832059248018
833 828 0.005904929915713804
833 829 0.012737626520280734
833 830 -0.012240342665772619
833 831 -0.0072538532476504767
833 832 -0.0071448312257057275
833 833 0.21427408395348094
834 364 0.0091547600479447242
834 365 0.0099126698472120113
834 366 -0.0059333076321102518
834 367 -0.011586774154472384
834 368 0.015871399434746875
834 369 -0.028871178003599455
834 466 -0.012237312242639461
834 467 -0.0084853212486427076
834 468 -0.0089916639749657301
834 469 0.015326822968692344
834 470 -0.022436038993726499
834 471 -0.04253260166012017
834 589 0.001778235536710168
834 590 -0.010756846800176084
834 591 -0.0045905090802021474
834 628 0.013532224778013323
834 629 0.0060271462721508294
834 630 -0.0068410974581378176
834 646 -0.012309219968343945
834 647 0.0084571104389707941
834 648 -0.016021322870953772
834 817 -0.0017748428326367104
834 818 -0.002217609436607424
834 819 0.0082953459618580506
834 823 -0.01048908879400667
834 824 -0.014103088041773494
834 825 -0.043542385238476249
834 826 -0.0062432740066229436
834 827 0.0059049299157138049
834 828 -0.020294595050260707
834 829 0.0074444622160040287
834 830 -0.007253853247650475
834 831 -0.0024100748976929741
834 832 0.0099630404215590301
834 833 0.0083324588818399128
834 834 0.17927516417459249
835 40 0.015136583175782573
835 41 -0.00024898134027488998
835 42 -2.3437703344304957e-05
835 214 0.010633585300994446
835 215 -0.00024888336193259195
835 216 0.00012673786034428079
835 346 -0.011212130909036944
835 347 0.0055185141836203364
835 348 -0.016719986073257361
835 349 -0.0096915351042797665
835 350 -0.0052890360298594929
835 351 0.016285218901390845
835 487 -0.017157150903293273
835 488 -0.003774624883076937
835 489 -0.018523627578935317
835 490 -0.017267811889449151
835 491 0.0041022118028477559
835 492 0.017940624574537913
835 769 -0.043383176906213128
835 770 0.028345485190058969
835 771 3.4570026932681606e-05
835 775 -0.064973735430923232
835 776 -0.029180405776838649
835 777 -0.00032446473751927265
835 826 -0.0045760873121551554
835 827 -0.011712363833940139
835 828 0.00024848736433564123
835 835 0.20272425857593895
836 40 -0.00024898134027488889
836 41 -0.0021587908692925033
836 42 -0.012464921427096792
836 214 -0.00024888336193259304
836 215 -0.0072395186507500375
836 216 0.01301685838903798
836 346 0.0055185141836203355
836 347 -0.0068016772545162188
836 348 0.0085785642483032307
836 349 -0.005289036029859492
836 350 -5.9227450640558094e-05
836 351 0.0045417367408414405
836 487 -0.0037746248830769361
836 488 -0.0034480091059446386
836 489 -0.0038689334171112884
836 490 0.0041022118028477567
836 491 -0.0093996750489973701
836 492 -0.0084302100422054965
836 769 0.028345485190058965
836 770 -0.04937777612495392
836 771 -0.00010177401235073437
836 775 -0.029180405776838649
836 776 -0.042260902204979064
836 777 -0.00017391478474479785
836 826 -0.011712363833940137
836 827 -0.046161104221395258
836 828 4.6188078375653527e-05
836 835 0.0015536570037907003
836 836 0.1725682633076783
837 40 -2.3437703344304117e-05
837 41 -0.012464921427096791
837 42 -0.0055942276899457232
837 214 0.00012673786034428144
837 215 0.013016858389037978
837 216 -0.0090737790102133464
837 346 -0.016719986073257358
837 347 0.0085785642483032325
837 348 -0.019684274426634597
837 349 0.016285218901390848
837 350 0.0045417367408414414
837 351 -0.019090128472932101
837 487 -0.018523627578935317
837 488 -0.0038689334171112897
837 489 -0.02363519081839266
837 490 0.017940624574537913
837 491 -0.0084302100422054965
837 492 -0.023895127496615008
837 769 3.4570026932682039e-05
837 770 -0.00010177401235073394
837 771 -0.019707777032259056
837 775 -0.00032446473751927325
837 776 -0.00017391478474479839
837 777 -0.019025775452354003
837 826 0.00024848736433564069
837 827 4.6188078375654015e-05
837 828 -0.0068635921726655953
837 835 0.00048214244344661067
837 836 -0.00086586043622136543
837 837 0.14196249608248526
838 133 -0.0013943494852292904
838 134 0.0054458804221165918
838 135 -0.0053350393998545815
838 136 0.0045791030567662308
838 137 -0.0081463755029656214
838 138 0.0073969172815711607
838 370 -0.030541460026050071
838 371 0.0052154644757766216
838 372 0.020353136999037614
838 373 -0.032328549501585598
838 374 0.00054114649797422582
838 375 -0.023761037589094095
838 439 0.014537695876455228
838 440 -0.0010986943280485802
838 441 -0.00083127076223959572
838 586 0.011495078245848875
838 587 -0.0031157042802519934
838 588 -0.0035779939041293029
838 691 -0.009607914295623618
838 692 0.01265773512613368
838 693 0.0023893209798050334
838 694 -0.012210406464454922
838 695 -0.011650015169429878
838 696 -0.0069951548940022021
838 829 -0.015793727534624758
838 830 0.00010694649198159946
838 831 -0.0095632861562896625
838 838 0.17901604986696287
839 133 0.0054458804221165918
839 134 -0.017417621912623419
839 135 0.014782570875886691
839 136 -0.0081463755029656214
839 137 0.0068887683003483278
839 138 0.008690972538317009
839 370 0.0052154644757766207
839 371 -0.024391598529142716
839 372 -0.014573267007651599
839 373 0.00054114649797422647
839 374 -0.0128749921064491
839 375 0.00064706510481992135
839 439 -0.0010986943280485812
839 440 -0.00326780440084653
839 441 -0.010428336527041147
839 586 -0.003115704280251993
839 587 0.003546046955474402
839 588 0.0046178411753575151
839 691 0.01265773512613368
839 692 -0.018192479515525606
839 693 -0.0023012755413935838
839 694 -0.011650015169429876
839 695 -0.046699485863172331
839 696 -0.019885956887558703
839 829 0.00010694649198159892
839 830 0.004801874179574556
839 831 0.0015872728934104665
839 838 -0.011968937051479559
839 839 0.1811542461234715
840 133 -0.0053350393998545815
840 134 0.014782570875886691
840 135 -0.016114180412646194
840 136 0.0073969172815711607
840 137 0.008690972538317009
840 138 0.008578028872116665
840 370 0.020353136999037614
840 371 -0.014573267007651599
840 372 -0.05919042362787974
840 373 -0.023761037589094092
840 374 0.0006470651048199207
840 375 -0.036352071370496182
840 439 -0.00083127076223959637
840 440 -0.010428336527041147
840 441 0.0050828198049935672
840 586 -0.0035779939041293025
840 587 0.0046178411753575151
840 588 -0.018408813508988989
840 691 0.0023893209798050339
840 692 -0.0023012755413935834
840 693 0.0015793529235254191
840 694 -0.0069951548940022003
840 695 -0.019885956887558703
840 696 -0.021634415874890758
840 829 -0.0095632861562896625
840 830 0.0015872728934104661
840 831 -0.0067398189755958193
840 838 -0.0047874386811442172
840 839 0.0082854359737472381
840 840 0.19608111216763702
841 367 0.0054821057545080881
841 368 -0.0054836721306702153
841 369 0.0098320047931349224
841 370 0.0017277773678213203
841 371 0.0017609828658568278
841 372 -0.0057166315436491073
841 439 -0.012899211618953695
841 440 -0.0044459134309345946
841 441 -0.019621214326660537
841 466 -0.01359769201435123
841 467 0.0079205974921064022
841 468 0.016408145989533857
841 586 0.0022838263807460147
841 587 0.0082560010310686882
841 588 0.0057810414783472418
841 628 -0.0093209650171569066
841 629 0.0051627238566590156
841 630 -0.016439025390817891
841 631 -0.0077506497763253791
841 632 -0.0085841530995431955
841 633 0.013347143297211643
841 829 -0.018488102762766832
841 830 -0.01394512317058413
841 831 -0.0067184202114745151
841 832 -0.035083057068899151
841 833 0.0011040465426278736
841 834 -0.0032644411544917136
841 838 -0.022674688904632936
841 839 0.021128163826316122
841 840 -0.0049534730414850106
841 841 0.18923632715702449
842 367 -0.0054836721306702162
842 368 0.013229199220931702
842 369 0.0068170229630759027
842 370 0.0017609828658568293
842 371 -0.0080037034970303796
842 372 0.014848049268405022
842 439 -0.0044459134309345954
842 440 -0.0022145958703721886
842 441 -0.0039878663617097503
842 466 0.0079205974921064022
842 467 -0.021413283501981777
842 468 -0.021695964216120071
842 586 0.0082560010310686899
842 587 -0.010097773861162181
842 588 -0.015915305372583233
842 628 0.0051627238566590173
842 629 0.009043166424903968
842 630 0.0045917321543064282
842 631 -0.0085841530995431972
842 632 -0.010430182210710898
842 633 0.013201380487919287
842 829 -0.013945123170584134
842 830 -0.026044193474254553
842 831 -0.01232975082806214
842 832 0.0011040465426278739
842 833 0.0039389779810460601
842 834 0.0019288232551666479
842 838 0.021128163826316125
842 839 -0.04423875269265036
842 840 0.0048522771973008435
842 841 -0.019513299561931464
842 842 0.18988034305620974
843 367 0.0098320047931349224
843 368 0.0068170229630759019
843 369 0.0030285318133080543
843 370 -0.0057166315436491073
843 371 0.014848049268405024
843 372 -0.021416407539725242
843 439 -0.019621214326660537
843 440 -0.0039878663617097521
843 441 -0.027554292402013826
843 466 0.016408145989533857
843 467 -0.021695964216120071
843 468 -0.040497176399701032
843 586 0.0057810414783472409
843 587 -0.015915305372583236
843 588 -0.014038144317390467
843 628 -0.016439025390817891
843 629 0.0045917321543064273
843 630 -0.019912792105223037
843 631 0.013347143297211641
843 632 0.013201380487919285
843 633 -0.028716949739095329
843 829 -0.0067184202114745151
843 830 -0.01232975082806214
843 831 -0.019267484288905366
843 832 -0.0032644411544917136
843 833 0.0019288232551666481
843 834 0.0011258789984092037
843 838 -0.0049534730414850106
843 839 0.0048522771973008444
843 840 -0.0098174089133538818
843 841 0.0081302637320374745
843 842 0.0055674502004147298
843 843 0.1795789276808685
844 343 0.0078079492948294558
844 344 -0.0087137175743296595
844 345 -0.0080961850507091458
844 346 -0.016351649864073618
844 347 0.010228367311868885
844 348 0.013977920653524484
844 466 -0.013311256902264647
844 467 0.0079470101722887744
844 468 -0.012806916125726122
844 469 0.0046045911872992654
844 470 -0.0076050734736527728
844 471 0.010728997739086546
844 490 -0.019678714925331096
844 491 0.007880127464852435
844 492 -0.0093281666511776662
844 493 -0.0019610343173404885
844 494 -0.0085314538364193622
844 495 0.0097654431436003854
844 628 -0.015192573414567926
844 629 0.00019184974007434421
844 630 0.00055639983298656098
844 631 -0.00016466657436262728
844 632 0.0074078045786229929
844 633 0.011956164613847879
844 646 0.0038727327188159133
844 647 -0.010265461003343992
844 648 -0.010426838982283556
844 775 0.026439994300735348
844 776 0.0033455666168114816
844 777 -0.0018296625870960906
844 826 -0.054917149667925325
844 827 0.0036780109871359422
844 828 -0.00070960614986057251
844 832 -0.0085064178474710955
844 833 -0.013046925179789308
844 834 0.00041948002394106741
844 835 -0.027878409279461322
844 836 0.014599810254708667
844 837 -0.00059879495184375175
844 841 -0.020135867560114186
844 842 0.020349957873284093
844 843 -0.00394914606176634
844 844 0.20714788878363927
845 343 -0.0087137175743296578
845 344 0.013911818230089468
845 345 -0.0075428663094794079
845 346 0.010228367311868884
845 347 -0.021520498648412947
845 348 -0.017070381746479193
845 466 0.0079470101722887744
845 467 -0.015759555537584801
845 468 0.017926764040957562
845 469 -0.0076050734736527719
845 470 0.015133568656678769
845 471 0.0047172499090286906
845 490 0.0078801274648524332
845 491 -0.027197102047880096
845 492 0.018627113877080072
845 493 -0.0085314538364193622
845 494 -0.0057103038872935181
845 495 0.015057180228599025
845 628 0.00019184974007434383
845 629 -0.03547718462109839
845 630 -0.021644338967887363
845 631 0.007407804578622992
845 632 0.015877577087414451
845 633 -0.0057312588814414176
845 646 -0.010265461003343994
845 647 0.0082796710155925747
845 648 -0.0070523647223559296
845 775 0.0033455666168114816
845 776 -0.0060276304442481408
845 777 -0.00041307010899959697
845 826 0.0036780109871359422
845 827 -0.0086684937355945273
845 828 0.00046955084746512651
845 832 -0.013046925179789308
845 833 -0.054352269907695691
845 834 0.002466497798599576
845 835 0.014599810254708667
845 836 -0.0098763476600870811
845 837 1.8813363078231012e-05
845 841 0.020349957873284093
845 842 -0.03937160012951426
845 843 0.008246465285065346
845 844 -0.0093101978390123658
845 845 0.23211977763701608
846 343 -0.0080961850507091458
846 344 -0.0075428663094794087
846 345 -0.0031880220672308389
846 346 0.013977920653524486
846 347 -0.0170703817464792
846 348 -0.038318068367589483
846 466 -0.012806916125726122
846 467 0.017926764040957565
846 468 -0.033932930882637199
846 469 0.010728997739086546
846 470 0.0047172499090286897
846 471 -0.0017895137459170273
846 490 -0.0093281666511776662
846 491 0.018627113877080072
846 492 -0.044468908494942991
846 493 0.0097654431436003854
846 494 0.015057180228599023
846 495 -0.01537591263279782
846 628 0.00055639983298656054
846 629 -0.021644338967887367
846 630 -0.039401014514971196
846 631 0.011956164613847881
846 632 -0.0057312588814414185
846 633 0.011396304478186505
846 646 -0.010426838982283554
846 647 -0.0070523647223559287
846 648 -0.0032805905295581195
846 775 -0.0018296625870960915
846 776 -0.00041307010899959703
846 777 0.013158686820530573
846 826 -0.00070960614986057295
846 827 0.00046955084746512564
846 828 -0.010594937411867018
846 832 0.00041948002394106762
846 833 0.0024664977985995764
846 834 -0.0071684671171044229
846 835 -0.00059879495184375327
846 836 1.8813363078231445e-05
846 837 0.0015874191867789843
846 841 -0.0039491460617663409
846 842 0.008246465285065346
846 843 -0.0064144861806904874
846 844 0.0071569816625523305
846 845 -0.0049523726947749451
846 846 0.20069328594164165
847 46 -0.0021607801389311428
847 47 0.0065349905399162671
847 48 0.0063627104424470102
847 49 0.0084410820172865532
847 50 -0.0080172643662875971
847 51 -0.0066782051743273542
847 208 0.021040940711283231
847 209 0.00050896767687044775
847 210 -0.00050682308786625149
847 340 -0.020320345945485738
847 341 0.0018923627355350403
847 342 -0.019277050681506008
847 343 -0.022823831360312512
847 344 0.0038169345504153033
847 345 0.019889594077682173
847 439 -0.0057993432931977779
847 440 0.0061690197029866415
847 441 -0.0089653745912268296
847 466 0.0090769910555390469
847 467 -0.010052166428618248
847 468 0.0087116071315673574
847 493 -0.018912768931822459
847 494 0.0026637575407323037
847 495 -0.021718195821198123
847 496 -0.023838565515331762
847 497 -0.0032619284994613836
847 498 0.0231310526552671
847 631 0.0020566887767705616
847 632 0.00018761346857839117
847 633 0.00082943304482248868
847 751 -0.0083660940829768798
847 752 0.017589683128734317
847 753 -0.0037847293767362751
847 778 -0.021420926974324947
847 779 -0.017954795130647835
847 780 0.0022881469125065556
847 841 -0.00054102299757354043
847 842 -0.011776571435308587
847 843 0.0018870887288364741
847 844 -0.035315152149459558
847 845 -0.0073534459459511526
847 846 -0.0077448500035266514
847 847 0.23585893575423478
848 46 0.0065349905399162645
848 47 -0.013387673354385659
848 48 -0.015671146907942666
848 49 -0.0080172643662875971
848 50 0.011168167323010066
848 51 -0.0096329787034378934
848 208 0.00050896767687044764
848 209 0.0013590935548649086
848 210 0.011751767082567813
848 340 0.001892362735535039
848 341 -0.017575779896452468
848 342 0.010057484482807959
848 343 0.0038169345504153011
848 344 -0.017592231503320045
848 345 -0.0092925448135254326
848 439 0.0061690197029866424
848 440 -0.014378697773539728
848 441 0.018174705771540345
848 466 -0.01005216642861825
848 467 0.014730560243249348
848 468 0.0081162164552422093
848 493 0.0026637575407323024
848 494 -0.0045153203398372848
848 495 0.0052105640796425174
848 496 -0.0032619284994613832
848 497 -0.0047243556659773952
848 498 0.0027453311487143006
848 631 0.00018761346857839028
848 632 -0.011902944272812792
848 633 -0.019669082994557704
848 751 0.017589683128734317
848 752 -0.021076559750609077
848 753 0.0023233893645274932
848 778 -0.017954795130647835
848 779 -0.046359274220566481
848 780 0.012044172371892228
848 841 -0.011776571435308587
848 842 -0.02721493641962525
848 843 -0.003793724108672453
848 844 -0.0073534459459511526
848 845 0.002044123446434096
848 846 -0.0024208815355804066
848 847 -0.021653724648196371
848 848 0.20164110302964897
849 46 0.0063627104424470102
849 47 -0.015671146907942666
849 48 -0.012183159577762427
849 49 -0.0066782051743273542
849 50 -0.0096329787034378934
849 51 0.012089171307534296
849 208 -0.0005068230878662516
849 209 0.011751767082567817
849 210 0.00047546374378888245
849 340 -0.019277050681506008
849 341 0.010057484482807959
849 342 -0.051528582803734811
849 343 0.019889594077682173
849 344 -0.0092925448135254343
849 345 -0.043659051055309948
849 439 -0.0089653745912268296
849 440 0.018174705771540341
849 441 -0.025327614039980739
849 466 0.0087116071315673574
849 467 0.0081162164552422075
849 468 0.010376564968901769
849 493 -0.021718195821198123
849 494 0.0052105640796425183
849 495 -0.029223368996003151
849 496 0.0231310526552671
849 497 0.0027453311487143006
849 498 -0.035357276446372016
849 631 0.00082943304482248771
849 632 -0.019669082994557704
849 633 -0.019466327283721663
849 751 -0.0037847293767362764
849 752 0.0023233893645274927
849 753 -0.0010983283427647142
849 778 0.002288146912506556
849 779 0.012044172371892228
849 780 -0.016784506488768829
849 841 0.0018870887288364746
849 842 -0.0037937241086724522
849 843 0.003343125555885563
849 844 -0.0077448500035266496
849 845 -0.0024208815355804061
849 846 -0.0023463350186001854
849 847 -0.0019582688782422337
849 848 -0.0054711924797189318
849 849 0.22114501919741902
850 373 -0.0004843499298397458
850 374 -0.0028396930775041952
850 375 0.0050705287874481383
850 376 0.0041937647142764713
850 377 0.0070530956837241438
850 378 -0.010940543943192991
850 439 -0.016097325268623393
850 440 0.0052475680520710499
850 441 0.015535065183843642
850 481 -0.0059469326453357192
850 482 -0.0074093528368372671
850 483 -0.012311824618935596
850 580 0.0040416696624588511
850 581 0.0086608258289344025
850 582 0.010535319136370137
850 583 -0.0079607319754943315
850 584 -7.2309981011127409e-05
850 585 0.00085752604724379726
850 586 0.0015148373647559605
850 587 -0.0096181025370025344
850 588 -0.010503777350941048
850 631 -0.010798835155301542
850 632 0.0086870604732017
850 633 -0.012780542441954958
850 658 -0.0061765057333617764
850 659 -0.0082275822185424001
850 660 0.012606715510512062
850 838 -0.02077821122445694
850 839 -0.020384065659289848
850 840 0.0090747878688260068
850 841 -0.058105324261497782
850 842 0.0078711899797142583
850 843 0.0043375333045719295
850 847 0.0084575178290467994
850 848 0.012390575167613745
850 849 0.00048761505360638848
850 850 0.21181595457600474
851 373 -0.0028396930775041957
851 374 -0.010039256969272175
851 375 0.015634001448839866
851 376 0.0070530956837241421
851 377 0.011450414107536879
851 378 0.0052108688820135841
851 439 0.0052475680520710499
851 440 -0.014035325180213203
851 441 -0.011020808225623825
851 481 -0.0074093528368372671
851 482 -0.0058224088510664589
851 483 -0.012097731280904484
851 580 0.0086608258289344042
851 581 0.013298975563652043
851 582 -0.0053906245880051881
851 583 -7.2309981011126678e-05
851 584 -0.0092920820393515464
851 585 -0.016185427288048344
851 586 -0.0096181025370025361
851 587 0.010592898864200489
851 588 -0.005553414349686466
851 631 0.0086870604732017
851 632 -0.020439272140355992
851 633 0.017171668809584213
851 658 -0.0082275822185424018
851 659 -0.0054602642571339568
851 660 0.011962280957271441
851 838 -0.020384065659289848
851 839 -0.024776771370645927
851 840 0.0116270183470693
851 841 0.0078711899797142566
851 842 -0.0082963268569466436
851 843 -0.0030678585628230478
851 847 0.012390575167613745
851 848 -0.011714294003913165
851 849 -0.00025828378322977389
851 850 0.012578528762277162
851 851 0.20640388429527579
852 373 0.0050705287874481392
852 374 0.015634001448839866
852 375 -0.023615608077760683
852 376 -0.010940543943192989
852 377 0.0052108688820135841
852 378 0.0081237110013102354
852 439 0.015535065183843637
852 440 -0.011020808225623827
852 441 -0.03678403726305024
852 481 -0.012311824618935596
852 482 -0.012097731280904484
852 483 -0.022135513844078095
852 580 0.010535319136370139
852 581 -0.0053906245880051881
852 582 0.0076141299135091363
852 583 0.00085752604724379671
852 584 -0.016185427288048344
852 585 -0.025711013539689267
852 586 -0.010503777350941048
852 587 -0.0055534143496864643
852 588 0.0066496851358201102
852 631 -0.012780542441954959
852 632 0.017171668809584213
852 633 -0.032230916602611862
852 658 0.012606715510512062
852 659 0.011962280957271438
852 660 -0.020123924001335152
852 838 0.0090747878688260068
852 839 0.011627018347069298
852 840 -0.01186783393834104
852 841 0.0043375333045719295
852 842 -0.0030678585628230483
852 843 -0.0060081216028777112
852 847 0.00048761505360638826
852 848 -0.00025828378322977313
852 849 0.012955110589967171
852 850 -0.0094829117953015678
852 851 -0.0058205082418989135
852 852 0.1907265807644388
853 130 0.0099441212595926306
853 131 1.4068667789047048e-05
853 132 -9.2226211898259201e-05
853 238 0.0095702292057808745
853 239 -0.0017949337533278084
853 240 -0.0015956770610713368
853 373 -0.012727811816061493
853 374 0.0036517595590872627
853 375 0.014830182928671961
853 376 -0.019287415714275127
853 377 -0.0037363423624862126
853 378 -0.01631353272425784
853 580 -0.015796935421438205
853 581 -0.0058096742128274535
853 582 0.016116871960530285
853 583 0.0096341661961561898
853 584 0.0090472688328570687
853 585 -0.011299062225347718
853 691 -0.029253777787261102
853 692 -0.023287533886886688
853 693 0.0034494752939240383
853 727 -0.043141726313251874
853 728 0.026882631589893523
853 729 0.00049921599793306139
853 838 -0.012657302501305217
853 839 0.00091604550814419381
853 840 0.0037737737719686533
853 850 -0.012386812575815653
853 851 0.01576566924661069
853 852 1.8036129848468567e-05
853 853 0.18673212318271287
854 130 1.4068667789046359e-05
854 131 -0.0078272270184290109
854 132 0.013116227539653465
854 238 -0.0017949337533278082
854 239 -0.0049192425018435943
854 240 -0.013212284970298286
854 373 0.0036517595590872635
854 374 -0.0044857766417358835
854 375 -0.0024976681484473015
854 376 -0.0037363423624862139
854 377 -0.015326779091041538
854 378 -0.0079736590599951609
854 580 -0.0058096742128274552
854 581 -0.010733434088181251
854 582 0.0098466011533308341
854 583 0.0090472688328570687
854 584 0.010020138026791778
854 585 0.0047644746010815182
854 691 -0.023287533886886685
854 692 -0.043361996382981105
854 693 0.0027258490518818649
854 727 0.02688263158989352
854 728 -0.055937711340929952
854 729 0.00051726648123453112
854 838 0.00091604550814419425
854 839 0.0097282878146906834
854 840 -0.002731296694291209
854 850 0.015765669246610693
854 851 -0.044921888555843691
854 852 0.0011879234750498675
854 853 -0.00078925716695428527
854 854 0.19211912541528839
855 130 -9.2226211898258523e-05
855 131 0.013116227539653465
855 132 -0.0093406070232181712
855 238 -0.0015956770610713374
855 239 -0.013212284970298282
855 240 -0.0083024299682540135
855 373 0.014830182928671965
855 374 -0.002497668148447302
855 375 -0.026544791474151543
855 376 -0.01631353272425784
855 377 -0.0079736590599951591
855 378 -0.035786357457839812
855 580 0.016116871960530285
855 581 0.0098466011533308341
855 582 -0.028309038062573275
855 583 -0.011299062225347718
855 584 0.0047644746010815173
855 585 -0.0058308895922112112
855 691 0.0034494752939240388
855 692 0.0027258490518818649
855 693 -0.013596492344880577
855 727 0.00049921599793306074
855 728 0.00051726648123453199
855 729 -0.024430892777001681
855 838 0.0037737737719686529
855 839 -0.0027312966942912081
855 840 0.013431049956908681
855 850 1.8036129848468744e-05
855 851 0.0011879234750498688
855 852 -0.011723440983171022
855 853 0.0019285641247947264
855 854 -0.0045289927524034736
855 855 0.16128021326472461
856 376 -0.011860365866981484
856 377 -9.3856993528643068e-05
856 378 -7.1197797842205771e-05
856 454 -0.0061265307512745164
856 455 -0.0072906910816286676
856 456 -0.012210553378481722
856 481 -0.0023017835004340353
856 482 0.0074575511283784847
856 483 0.012545859655137361
856 580 -0.010748603339628113
856 581 0.00031054214901577414
856 582 0.00065425547900828992
856 640 -0.0040107920646584999
856 641 -0.0085607458582276346
856 642 0.012222437019680317
856 658 -0.0011278483255309862
856 659 0.0081700227867147548
856 660 -0.012653192518776338
856 850 -0.063418065992878803
856 851 -0.0080678038072703826
856 852 0.00037804935892421553
856 853 -0.001995462434933704
856 854 -0.014999148707759714
856 855 -0.00015712575398650532
856 856 0.18300618018761933
857 376 -9.3856993528642146e-05
857 377 -0.018553693506853881
857 378 0.018221270312215546
857 454 -0.0072906910816286702
857 455 -0.0072353078559545987
857 456 -0.011881220424676139
857 481 0.007457551128378483
857 482 0.0052151323780910844
857 483 -0.0069752024329847685
857 580 0.00031054214901577327
857 581 -0.020137509149819054
857 582 -0.018691721674047868
857 640 -0.0085607458582276363
857 641 -0.0042232894208775306
857 642 0.011619851839265212
857 658 0.0081700227867147548
857 659 0.008738803850658141
857 660 0.0065257744270507817
857 850 -0.0080678038072703809
857 851 -0.012321067202944654
857 852 -7.4212969953482591e-06
857 853 -0.014999148707759712
857 854 -0.022857991801820691
857 855 9.3922374345435699e-05
857 856 0.0013032797417805489
857 857 0.17191604807746033
858 376 -7.1197797842207072e-05
858 377 0.018221270312215546
858 378 -0.034591348547929258
858 454 -0.012210553378481722
858 455 -0.011881220424676139
858 456 -0.020972051986761088
858 481 0.012545859655137364
858 482 -0.0069752024329847676
858 483 -0.014198841925535416
858 580 0.00065425547900828894
858 581 -0.018691721674047868
858 582 -0.028926660353774315
858 640 0.012222437019680316
858 641 0.01161985183926521
858 642 -0.016688552289088075
858 658 -0.012653192518776342
858 659 0.0065257744270507817
858 660 -0.011151902527473834
858 850 0.00037804935892421423
858 851 -7.4212969953478796e-06
858 852 -0.015222526588923533
858 853 -0.00015712575398650532
858 854 9.3922374345435915e-05
858 855 0.0059831175935565473
858 856 -0.00012648747750526775
858 857 0.00027339047485979481
858 858 0.15289809766560866
859 337 -0.0042314843194206034
859 338 -0.0059599021497529804
859 339 -0.01076045239587751
859 340 -0.0013144382923493828
859 341 0.0049713937385173152
859 342 0.0090249059843332587
859 439 0.0019168652890289204
859 440 -0.0057885079842034514
859 441 0.012758961121289044
859 454 0.0050359140199091523
859 455 0.00751061204591207
859 456 -0.010649133526774711
859 481 -0.012451188240703577
859 482 1.2735977929681904e-05
859 483 -0.00012700176636233976
859 496 -0.0035228569120650042
859 497 0.0078554369428052526
859 498 -0.0092148157386776498
859 499 -0.0077301828713165453
859 500 -0.010849774887373735
859 501 0.011023696633186225
859 631 -0.0014906625793624016
859 632 -0.0068995544283532292
859 633 -0.012353080656847367
859 640 0.0044344833066031399
859 641 0.0090849108105486957
859 642 0.010621110438564004
859 658 -0.010789112840391095
859 659 1.4483630775669575e-06
859 660 0.00013692274159103363
859 847 -0.053244780296827589
859 848 0.01845123600446125
859 849 0.00015550512009453166
859 850 -0.026898200138961725
859 851 -0.019532345483487857
859 852 -6.7721711102123987e-05
859 856 -0.012256326839643967
859 857 0.015532580241256614
859 858 -0.00024900042206489018
859 859 0.19541050593953105
860 337 -0.0059599021497529804
860 338 -0.0025306716730109534
860 339 -0.012815713717776928
860 340 0.0049713937385173152
860 341 -0.0066325561356645208
860 342 -0.01504463480194735
860 439 -0.0057885079842034514
860 440 0.010757178244709894
860 441 0.005177734972903256
860 454 0.0075106120459120709
860 455 0.011738090039230938
860 456 0.0051908602942755868
860 481 1.2735977929682089e-05
860 482 -0.019806657250739049
860 483 0.018453210502326605
860 496 0.0078554369428052509
860 497 -0.017599091454580839
860 498 0.01624938562843985
860 499 -0.010849774887373733
860 500 -0.0096843176007317712
860 501 0.01415512195781992
860 631 -0.0068995544283532283
860 632 0.011477299201582497
860 633 -0.0053337954835945191
860 640 0.0090849108105486975
860 641 0.013339578908540808
860 642 -0.0052933520659543178
860 658 1.4483630775665238e-06
860 659 -0.021718182189242305
860 660 -0.019017281094884167
860 847 0.018451236004461254
860 848 -0.023760025628506324
860 849 -0.00044632930563916163
860 850 -0.01953234548348786
860 851 -0.049868508385177035
860 852 0.00096224221382589566
860 856 0.015532580241256616
860 857 -0.051840082642921878
860 858 0.00084958030847206165
860 859 0.0072322208216537426
860 860 0.24061688398080927
861 337 -0.010760452395877508
861 338 -0.012815713717776928
861 339 -0.01477552237292166
861 340 0.0090249059843332587
861 341 -0.015044634801947348
861 342 -0.016240427795699411
861 439 0.012758961121289044
861 440 0.0051777349729032552
861 441 0.0091727203499334716
861 454 -0.010649133526774711
861 455 0.0051908602942755877
861 456 0.0051135442335849112
861 481 -0.00012700176636233889
861 482 0.018453210502326605
861 483 -0.036385061583195447
861 496 -0.0092148157386776498
861 497 0.016249385628439847
861 498 -0.017794294281975577
861 499 0.011023696633186227
861 500 0.014155121957819917
861 501 -0.016086140063942066
861 631 -0.012353080656847367
861 632 -0.0053337954835945191
861 633 0.0081155458269634197
861 640 0.010621110438564004
861 641 -0.0052933520659543178
861 642 0.0056903996274901888
861 658 0.00013692274159103428
861 659 -0.019017281094884163
861 660 -0.031851249101260172
861 847 0.00015550512009453185
861 848 -0.00044632930563916077
861 849 -0.015942982338785848
861 850 -6.7721711102123987e-05
861 851 0.00096224221382589653
861 852 -0.020044086870781769
861 856 -0.00024900042206488996
861 857 0.00084958030847206078
861 858 -0.0099803547392281616
861 859 -8.3775977735679058e-05
861 860 -0.0021878025323559397
861 861 0.17794051574533676
862 334 -0.013159682448856218
862 335 -0.011932843726208509
862 336 -0.011725181201470525
862 337 0.0013056175814949729
862 338 0.0064938674827825253
862 339 0.010062249001611411
862 451 0.0020998555785746334
862 452 0.0076802468446987831
862 453 -0.010644973033575252
862 454 -0.01450435671928574
862 455 -0.0077541600282288485
862 456 0.011658924296960015
862 499 0.00022489714339487361
862 500 0.010111643126271736
862 501 -0.01074329041621205
862 502 0.0019649281793116089
862 503 -0.0048685317776595155
862 504 0.010445646109116989
862 640 -0.010818388060069959
862 641 -0.0012544402065282662
862 642 -0.0016298739889911075
862 856 -0.0063649119546412584
862 857 -0.016879652881117198
862 858 -0.00012658557863409986
862 859 -0.053147101538248281
862 860 -0.0091223921522468228
862 861 -0.00023789565382397425
862 862 0.17958468190222934
863 334 -0.01193284372620851
863 335 -0.02494358879714885
863 336 -0.01675197236499671
863 337 0.0064938674827825262
863 338 0.011475173209445501
863 339 -0.0070522142573528276
863 451 0.0076802468446987848
863 452 0.010775301904387455
863 453 0.0047691125208722202
863 454 -0.0077541600282288511
863 455 -0.020736996883277313
863 456 0.019277701637533499
863 499 0.010111643126271736
863 500 0.0046043041453424777
863 501 0.010275442653778439
863 502 -0.0048685317776595164
863 503 0.011273510938175618
863 504 0.0088840362626965309
863 640 -0.0012544402065282675
863 641 -0.020392228048166493
863 642 -0.020951046361994484
863 856 -0.016879652881117202
863 857 -0.022224868602356843
863 858 -5.789905675071972e-05
863 859 -0.0091223921522468211
863 860 -0.0070938298683233805
863 861 -0.00029453618316286256
863 862 0.014698388332972413
863 863 0.19273716228205645
864 334 -0.011725181201470525
864 335 -0.01675197236499671
864 336 -0.020607641125537157
864 337 0.010062249001611409
864 338 -0.0070522142573528268
864 339 -0.0078601584562469039
864 451 -0.010644973033575252
864 452 0.0047691125208722211
864 453 0.0027304480289216579
864 454 0.011658924296960011
864 455 0.019277701637533499
864 456 -0.038547228202985208
864 499 -0.01074329041621205
864 500 0.01027544265377844
864 501 -0.0083680093880220633
864 502 0.010445646109116989
864 503 0.0088840362626965326
864 504 -0.0067420227710471899
864 640 -0.0016298739889911078
864 641 -0.020951046361994484
864 642 -0.033095418047885315
864 856 -0.00012658557863409942
864 857 -5.7899056750718852e-05
864 858 0.0020804948274213446
864 859 -0.00023789565382397295
864 860 -0.00029453618316286245
864 861 -0.010837264331959692
864 862 -0.0090585351898170696
864 863 0.005515751917564083
864 864 0.15290821069468818
865 52 0.0095429810668244287
865 53 0.0038970895046887429
865 54 0.00085935148054271126
865 199 -0.0020935177223613951
865 200 -0.0068238702452216513
865 201 0.0068762967998495829
865 202 -0.003787678506516986
865 203 0.0064670192143099379
865 204 -0.0065143609369206204
865 334 0.0068659774683236287
865 335 0.0035253330113464093
865 336 0.00015206779028189709
865 499 -0.017532725229818705
865 500 -0.0087128730348654242
865 501 -0.015613147305107728
865 502 -0.024766470351997038
865 503 -0.00047640839792964518
865 504 -0.0011729808966319468
865 505 -0.012908924775456635
865 506 0.0082317849245241541
865 507 0.012259630746189736
865 754 -0.026393749584157428
865 755 -0.0083952763101957373
865 756 0.0038517843035020165
865 790 -0.014660071135793682
865 791 0.019950099285958405
865 792 -0.0018600427460784346
865 793 -0.0015693798594389502
865 794 -0.012621304152130551
865 795 -0.0035087499745555905
865 862 -0.013909919321544872
865 863 -0.016742295946182845
865 864 0.0011630671387374855
865 865 0.17848880459319943
866 52 0.0038970895046887416
866 53 0.0071563856748369549
866 54 -0.014528681477843995
866 199 -0.0068238702452216521
866 200 -0.011187723848134032
866 201 0.015419862449509955
866 202 0.0064670192143099371
866 203 -0.016881096525579561
866 204 0.015275746830058027
866 334 0.0035253330113464089
866 335 0.00075435561488048925
866 336 0.012983458482937889
866 499 -0.008712873034865426
866 500 -0.0025997657692941132
866 501 -0.0060503883373459865
866 502 -0.00047640839792964453
866 503 -0.043650941955518607
866 504 -0.02695303091611485
866 505 0.0082317849245241558
866 506 0.0076340997667407005
866 507 -0.0024816144095157308
866 754 -0.0083952763101957373
866 755 -0.076930687938386477
866 756 -0.01030366182576381
866 790 0.019950099285958405
866 791 -0.015683112524205955
866 792 -0.00017511284426785853
866 793 -0.012621304152130553
866 794 0.0091495578255478428
866 795 -0.004207160566251214
866 862 -0.016742295946182848
866 863 -0.04953602734173175
866 864 0.0047287972740661923
866 865 0.0099084988023258325
866 866 0.22325290907820997
867 52 0.00085935148054271137
867 53 -0.014528681477843995
867 54 -0.0052214882631814773
867 199 0.0068762967998495812
867 200 0.015419862449509956
867 201 -0.011455843996197042
867 202 -0.0065143609369206195
867 203 0.015275746830058026
867 204 -0.017170740224614279
867 334 0.00015206779028189741
867 335 0.012983458482937889
867 336 -0.023634337830671856
867 499 -0.01561314730510773
867 500 -0.0060503883373459865
867 501 -0.0083676390582287409
867 502 -0.0011729808966319468
867 503 -0.026953030916114853
867 504 -0.067452026895451711
867 505 0.012259630746189732
867 506 -0.0024816144095157313
867 507 0.0053450262204206437
867 754 0.0038517843035020165
867 755 -0.010303661825763808
867 756 -0.027451326219118184
867 790 -0.0018600427460784353
867 791 -0.00017511284426785859
867 792 -0.0014622921208664031
867 793 -0.003508749974555591
867 794 -0.0042071605662512132
867 795 0.014063863201162017
867 862 0.0011630671387374857
867 863 0.0047287972740661915
867 864 -0.0090307534758807539
867 865 0.0074988517289105326
867 866 0.011643121378219658
867 867 0.19002961745728711
868 124 0.0048467597440915201
868 125 0.0072841963193714561
868 126 -0.0080171694661336605
868 127 1.5986142931370467e-05
868 128 -0.0055058546599017731
868 129 0.0054567434904392066
868 241 0.018149596362972586
868 242 -0.0014944127652811454
868 243 -0.0019442698581849701
868 376 -0.016120916994829478
868 377 0.0043213332935007134
868 378 0.016344024822122872
868 379 -0.0087519746599993339
868 380 -0.005872012696243616
868 381 -0.011877114783127186
868 577 -0.020209099609415963
868 578 -0.0047590427070999608
868 579 0.019133107319956079
868 580 -0.011851094079813662
868 581 0.0059276306832787423
868 582 -0.015834750005788472
868 688 -0.035688432078972848
868 689 0.022483927947098636
868 690 0.0061351356428361245
868 727 -0.027817991885882139
868 728 -0.022704278685629228
868 729 -0.00049607281907795473
868 853 -0.022813452475959381
868 854 -0.0010349139599714879
868 855 3.3255830672208582e-05
868 856 -0.0032968340590821925
868 857 0.016706084931807991
868 858 5.1732243000114034e-05
868 868 0.17962777692099743
869 124 0.0072841963193714552
869 125 0.0076398438508207588
869 126 0.0090987886973180263
869 127 -0.005505854659901774
869 128 -0.013046944818487997
869 129 0.014797698481180723
869 241 -0.001494412765281145
869 242 -9.9197351945133497e-05
869 243 -0.012032635220643163
869 376 0.0043213332935007143
869 377 -0.010896303241133547
869 378 -0.0076757950924968114
869 379 -0.0058720126962436168
869 380 -0.011565590333173368
869 381 -0.016162525230113009
869 577 -0.00475904270709996
869 578 -0.0028018102223767638
869 579 0.0051258340579929534
869 580 0.0059276306832787415
869 581 -0.0062865066030057676
869 582 0.0086117042080702585
869 688 0.022483927947098633
869 689 -0.065879476846795279
869 690 -0.014709583319812593
869 727 -0.022704278685629232
869 728 -0.036512881503360427
869 729 0.00033060485226829453
869 853 -0.0010349139599714861
869 854 0.011101158881696584
869 855 -0.0010307861483130317
869 856 0.016706084931807991
869 857 -0.015038699675324457
869 858 0.0001413237214289661
869 868 0.0050095346797606449
869 869 0.20523567185740516
870 124 -0.0080171694661336605
870 125 0.009098788697318028
870 126 0.0061540090923882084
870 127 0.0054567434904392066
870 128 0.014797698481180723
870 129 -0.013960533458496847
870 241 -0.0019442698581849695
870 242 -0.012032635220643163
870 243 -0.0027800247662440342
870 376 0.016344024822122875
870 377 -0.0076757950924968114
870 378 -0.028106557938523732
870 379 -0.011877114783127184
870 380 -0.016162525230113009
870 381 -0.037254000982678559
870 577 0.019133107319956079
870 578 0.0051258340579929552
870 579 -0.029271507133808283
870 580 -0.015834750005788469
870 581 0.0086117042080702567
870 582 -0.021137133393156912
870 688 0.0061351356428361245
870 689 -0.014709583319812595
870 690 -0.027131100251101044
870 727 -0.00049607281907795538
870 728 0.0003306048522682941
870 729 -0.013532733783074263
870 853 3.325583067220739e-05
870 854 -0.0010307861483130317
870 855 0.0083278161170578183
870 856 5.1732243000114468e-05
870 857 0.00014132372142896675
870 858 0.0082356874722802724
870 868 -0.011881770561915042
870 869 0.012019047785155912
870 870 0.1705819333890031
871 376 0.0048359054966664134
871 377 -0.0070946078737127178
871 378 0.010098644733364236
871 379 -0.011076165212018346
871 380 7.8634944804849109e-05
871 381 0.0006695273750118684
871 382 0.00448076247347866
871 383 0.0056308238624893535
871 384 -0.010500139350004789
871 451 -0.01000570081067075
871 452 -0.008070811328642161
871 453 -0.011703717943019451
871 454 -0.0059497598807317581
871 455 0.0072494692250411677
871 456 0.011574442357998987
871 574 0.0053609752380536649
871 575 0.010319343053023702
871 576 0.010009652899416148
871 577 -0.010905673852193345
871 578 -2.9027007969180917e-05
871 579 -0.00026731917890581108
871 580 0.0042908390492376082
871 581 -0.0089150013847537884
871 582 -0.010154938128736465
871 640 -0.0093122858869881912
871 641 0.0085116004101706017
871 642 -0.011232390923354632
871 643 -0.0049426584488991366
871 644 -0.0075957856077816938
871 645 0.011577952900140081
871 856 -0.059498655057931768
871 857 0.0064118383505780757
871 858 -0.00025819082845926185
871 862 -0.011532923984317793
871 863 0.015520135899910855
871 864 -0.00032632105404609135
871 868 -0.018044202618443698
871 869 -0.016776096947818606
871 870 -0.0001077625096811384
871 871 0.19786019083882067
872 376 -0.0070946078737127169
872 377 0.010549590728750875
872 378 0.0061994417100921951
872 379 7.8634944804849421e-05
872 380 -0.016651190492010727
872 381 0.018281304649702318
872 382 0.0056308238624893526
872 383 0.014320242099865212
872 384 0.0043183399942721889
872 451 -0.0080708113286421627
872 452 -0.018333390093739643
872 453 -0.016994122693669816
872 454 0.0072494692250411694
872 455 -0.005558264768589752
872 456 -0.012817290554408806
872 574 0.010319343053023702
872 575 0.017728405357320377
872 576 -0.0052963889998646234
872 577 -2.9027007969182651e-05
872 578 -0.024968728135259445
872 579 -0.018777399626356075
872 580 -0.0089150013847537884
872 581 0.011723556544569368
872 582 -0.0058336329274823072
872 640 0.0085116004101706017
872 641 -0.01953346502636651
872 642 0.017152027415749713
872 643 -0.0075957856077816955
872 644 -0.0015436231858430346
872 645 0.011587599418591357
872 856 0.0064118383505780766
872 857 -0.011437474447335949
872 858 -0.00011164857218295032
872 862 0.015520135899910853
872 863 -0.047927040104577989
872 864 -0.0037030714112266561
872 868 -0.016776096947818606
872 869 -0.061526534999144206
872 870 0.00081551025513235207
872 871 0.008517096336250177
872 872 0.23609847600955122
873 376 0.010098644733364238
873 377 0.0061994417100921942
873 378 0.010325668563689305
873 379 0.0006695273750118684
873 380 0.018281304649702314
873 381 -0.032178956598498863
873 382 -0.010500139350004788
873 383 0.0043183399942721889
873 384 0.0057024387836271092
873 451 -0.011703717943019453
873 452 -0.016994122693669816
873 453 -0.026602057862515221
873 454 0.011574442357998989
873 455 -0.012817290554408809
873 456 -0.02054097836684218
873 574 0.010009652899416148
873 575 -0.0052963889998646225
873 576 0.0070103873348144798
873 577 -0.00026731917890581087
873 578 -0.018777399626356078
873 579 -0.026900812008112885
873 580 -0.010154938128736463
873 581 -0.0058336329274823063
873 582 0.0092927026591667506
873 640 -0.011232390923354631
873 641 0.017152027415749709
873 642 -0.024203634541500804
873 643 0.011577952900140083
873 644 0.011587599418591353
873 645 -0.018199003615791513
873 856 -0.00025819082845926369
873 857 -0.00011164857218295103
873 858 -0.017465158600153196
873 862 -0.00032632105404609125
873 863 -0.0037030714112266556
873 864 -0.0076982942145909956
873 868 -0.0001077625096811384
873 869 0.00081551025513235294
873 870 -0.017577160362499619
873 871 -9.6990945232591015e-05
873 872 -0.001298945761913653
873 873 0.18103417946419006
874 52 -0.00089100681071312355
874 53 0.0080889134897072033
874 54 0.0063373352518511974
874 55 -0.017344189853325632
874 56 -4.3368086899420177e-19
874 57 -1.4719315040911604e-18
874 58 -0.00011754288294284437
874 59 -0.008624978994829037
874 60 -0.0080797927955873327
874 331 -0.021339482089014497
874 332 0.011201459840510162
874 333 -0.015333074838090132
874 334 -0.022011316012914155
874 335 -0.014471714339632603
874 336 0.012719178223447591
874 505 0.012627173629314717
874 506 0.00044218862093333908
874 507 0.0046001378488073619
874 754 -0.0010628256057475932
874 755 0.0091607702536400173
874 756 -0.0042029957999245564
874 793 -0.033411309250403899
874 794 -0.01410000985161129
874 795 0.0086689114987013264
874 865 -0.042304755622549192
874 866 -0.003921890187287641
874 867 -0.018866275628866707
874 874 0.16793045878487836
875 52 0.0080889134897072033
875 53 0.015632580772164995
875 54 -0.0045311735214810158
875 55 0
875 56 -0.039037357805738783
875 57 -0.016025641025641024
875 58 -0.0086249789948290388
875 59 0.0038805223404356137
875 60 -0.0080318570810623876
875 331 0.01120145984051016
875 332 -0.031892101376711425
875 333 0.023864998260405657
875 334 -0.014471714339632602
875 335 -0.021064906858780801
875 336 0.01242776835568072
875 505 0.00044218862093333864
875 506 0.011113411798506088
875 507 -0.0028055610029733878
875 754 0.0091607702536400173
875 755 -0.020575845680087204
875 756 0.011243165235954292
875 793 -0.01410000985161129
875 794 -0.064774781903733897
875 795 0.025824603240826603
875 865 -0.0039218901872876419
875 866 -0.012122584219836816
875 867 -0.0027670984617304134
875 874 0.011265901822925646
875 875 0.2077749699805069
876 52 0.0063373352518511982
876 53 -0.0045311735214810158
876 54 0.01295557857057798
876 55 -2.281483243429458e-18
876 56 -0.016025641025641021
876 57 -0.039011496534226545
876 58 -0.0080797927955873327
876 59 -0.0080318570810623859
876 60 0.0034671451808643565
876 331 -0.015333074838090132
876 332 0.023864998260405654
876 333 -0.051169446817593514
876 334 0.012719178223447591
876 335 0.012427768355680723
876 336 -0.025084846045365858
876 505 0.0046001378488073619
876 506 -0.0028055610029733878
876 507 -0.013646599908506448
876 754 -0.0042029957999245582
876 755 0.011243165235954292
876 756 9.1182460279636435e-05
876 793 0.0086689114987013281
876 794 0.0258246032408266
876 795 -0.049462624669170126
876 865 -0.018866275628866711
876 866 -0.0027670984617304143
876 867 -0.030407822221559418
876 874 0.0092002732207806196
876 875 -0.030579391016509291
876 876 0.19566107631637908
877 331 -0.002315449394927453
877 332 -0.0055353114642057374
877 333 -0.010402293320395758
877 334 -0.00062305257040810836
877 335 0.0098735404225829843
877 336 0.011282320077944826
877 451 -0.011184749739168578
877 452 -0.0069410970055157339
877 453 0.010314230870686706
877 478 0.0004878150264092415
877 479 0.0061997455061172128
877 480 -0.01138480957574391
877 502 -0.0042273056153077576
877 503 0.0057020824530011165
877 504 -0.01067623104517245
877 505 -0.004706711733683938
877 506 -0.0085866400118817052
877 507 0.010879580765021849
877 640 0.0023320689173090187
877 641 -0.0082597735227324821
877 642 -0.010657958757806131
877 643 -0.014210581329998953
877 644 -0.00015625784236181477
877 645 -9.768473821395742e-05
877 655 0.0015481208955954908
877 656 0.007621916226969996
877 657 0.011471196768661207
877 862 -0.058281091416756588
877 863 -0.0013409444966146901
877 864 0.010962312253277566
877 865 -0.0037433976092656669
877 866 0.016306054096260111
877 867 -0.0007362542739725083
877 871 -0.01161193612177462
877 872 -0.017121514771012189
877 873 0.00096278134736881536
877 874 -0.0048888659731278752
877 875 -0.010733608119906762
877 876 -0.00059081567366879681
877 877 0.1935973549119841
878 331 -0.0055353114642057392
878 332 -0.0021877308840515673
878 333 -0.013063908280004238
878 334 0.0098735404225829843
878 335 0.0042358935731314782
878 336 -0.0096634699270319556
878 451 -0.0069410970055157339
878 452 -0.017842122153359855
878 453 0.018291679189383632
878 478 0.0061997455061172137
878 479 0.012751837444295436
878 480 0.0049111687797794646
878 502 0.0057020824530011156
878 503 -0.0010813459899198384
878 504 0.0093397701719273168
878 505 -0.0085866400118817052
878 506 -0.019581420415720027
878 507 0.016709657410538939
878 640 -0.0082597735227324821
878 641 0.014871144862204633
878 642 -0.003000887185699447
878 643 -0.00015625784236181477
878 644 -0.030046494025328191
878 645 -0.020174422400167362
878 655 0.007621916226969996
878 656 0.010756018222361318
878 657 -0.0045079859376968498
878 862 -0.0013409444966146901
878 863 -0.01078606098925753
878 864 -0.0014857544515888771
878 865 0.016306054096260111
878 866 -0.020498408009971592
878 867 0.0042624343936909347
878 871 -0.017121514771012186
878 872 -0.040368953420493965
878 873 0.0056639776829216434
878 874 -0.01073360811990676
878 875 -0.04498428127299213
878 876 -0.0038546595015370869
878 877 0.008900573224604795
878 878 0.22296985844115005
879 331 -0.010402293320395757
879 332 -0.013063908280004238
879 333 -0.011860773096564883
879 334 0.01128232007794483
879 335 -0.0096634699270319573
879 336 -0.0081841063015758182
879 451 0.010314230870686706
879 452 0.018291679189383632
879 453 -0.035756446026731156
879 478 -0.01138480957574391
879 479 0.0049111687797794646
879 480 0.0050528567655573169
879 502 -0.01067623104517245
879 503 0.0093397701719273168
879 504 -0.013437807894526557
879 505 0.010879580765021851
879 506 0.016709657410538939
879 507 -0.016964278203733255
879 640 -0.010657958757806131
879 641 -0.0030008871856994474
879 642 0.0070860091064672247
879 643 -9.7684738213958504e-05
879 644 -0.020174422400167362
879 645 -0.038493773721272218
879 655 0.011471196768661207
879 656 -0.0045079859376968498
879 657 0.0051485501829599944
879 862 0.010962312253277566
879 863 -0.0014857544515888767
879 864 -0.015011692671554312
879 865 -0.00073625427397250873
879 866 0.0042624343936909356
879 867 0.00043318174314614546
879 871 0.00096278134736881515
879 872 0.0056639776829216434
879 873 -0.00670095651545585
879 874 -0.00059081567366879714
879 875 -0.0038546595015370873
879 876 -0.0056238069555036886
879 877 -0.011137148146333362
879 878 -0.0038351693983251145
879 879 0.16912056769082598
880 58 -0.0063402826328424694
880 59 0.0071096788623644606
880 60 0.00717392643724036
880 61 0.0015412657971410567
880 62 -0.0079259247299044433
880 63 -0.0079766738290949421
880 193 0.0041940700271965179
880 194 -0.0082150073500362793
880 195 0.0079291609801823495
880 196 -0.0055085218470282155
880 197 0.0060270351761245733
880 198 -0.010976452867494428
880 328 -0.019884636997062374
880 329 0.0060068751578107897
880 330 -0.0093277010973543874
880 331 0.0013149795581052278
880 332 -0.0081262521831968453
880 333 0.01036520825620459
880 508 0.0024514090665798097
880 509 0.0065374847938010645
880 510 0.0078154174512696673
880 772 -0.027224025243391261
880 773 -0.015810199092913292
880 774 0.00014328155500770764
880 793 -0.022358742788368746
880 794 0.012566508746897924
880 795 -0.0066905600907744868
880 874 -0.014869010599276341
880 875 -9.5180801418886813e-05
880 876 0.0018074506399446656
880 880 0.20548321724660359
881 58 0.0071096788623644597
881 59 -0.017107377626049435
881 60 -0.017263123640436868
881 61 -0.0079259247299044433
881 62 0.0036323803284527534
881 63 -0.0081762991183100403
881 193 -0.0082150073500362776
881 194 0.014057755684892405
881 195 0.0096275715186969341
881 196 0.0060270351761245733
881 197 0.001520156254471649
881 198 0.0080240350576893694
881 328 0.0060068751578107879
881 329 -0.034047999505587713
881 330 0.022031420149706257
881 331 -0.0081262521831968436
881 332 0.0026385769436880436
881 333 0.0072583464928179181
881 508 0.0065374847938010636
881 509 -0.0095837910241661824
881 510 -0.012823705005704112
881 772 -0.015810199092913292
881 773 -0.090673297110632267
881 774 -0.0014884725536747304
881 793 0.012566508746897924
881 794 -0.015826169786290735
881 795 0.0039545750848872969
881 874 -9.518080141888768e-05
881 875 0.0075274539817693272
881 876 -0.0015775742333557089
881 880 0.025692930648171672
881 881 0.24852735578193655
882 58 0.0071739264372403617
882 59 -0.017263123640436868
882 60 -0.018352575628435557
882 61 -0.0079766738290949438
882 62 -0.008176299118310042
882 63 0.0018163483918828415
882 193 0.0079291609801823478
882 194 0.0096275715186969358
882 195 0.0054637598113958857
882 196 -0.01097645286749443
882 197 0.0080240350576893694
882 198 -0.010779710500256648
882 328 -0.0093277010973543857
882 329 0.022031420149706254
882 330 -0.052992806870762736
882 331 0.010365208256204591
882 332 0.0072583464928179173
882 333 -0.0043697565966760617
882 508 0.0078154174512696673
882 509 -0.012823705005704112
882 510 -0.027517377117603947
882 772 0.0001432815550077072
882 773 -0.0014884725536747283
882 774 -0.032630737789049256
882 793 -0.0066905600907744868
882 794 0.0039545750848872978
882 795 -0.01471352208889054
882 874 0.0018074506399446658
882 875 -0.0015775742333557084
882 876 0.013053517619612438
882 880 0.013857705224311215
882 881 0.0034727928053298737
882 882 0.19701540132320064
883 382 -0.010080477195784303
883 383 -0.0056500540995850562
883 384 0.010548312959618099
883 385 0.0045112795557003598
883 386 0.0056509409309385764
883 387 -0.010398644449690752
883 451 -0.0011914721720683937
883 452 0.0081226401384648719
883 453 0.010901902160232698
883 478 -0.012347270482693476
883 479 -0.0084956977894104727
883 480 -0.011246811360335335
883 571 0.0049799451485846146
883 572 0.010197770604591077
883 573 0.010452142290421039
883 574 -0.011810846286243354
883 575 -0.01012535479248465
883 576 -0.0098801282702621548
883 643 -4.086530101919878e-05
883 644 0.0077254059787096215
883 645 -0.011471411335379355
883 655 -0.0097581137800145344
883 656 -0.007506842358668408
883 657 0.010739820995633798
883 871 -0.056349225568923363
883 872 -0.012573314137504647
883 873 0.00024116645313241778
883 877 -0.025909870840634244
883 878 0.019213211222300183
883 879 -0.00055634810629234506
883 883 0.19456659063887721
884 382 -0.0056500540995850562
884 383 -0.015226491759805479
884 384 0.017849874307529205
884 385 0.0056509409309385764
884 386 0.014212251572394734
884 387 0.0044009287179724334
884 451 0.0081226401384648719
884 452 0.0058741288747433812
884 453 -0.0081505435126563927
884 478 -0.0084956977894104745
884 479 -0.023779179176458245
884 480 -0.018111157635712645
884 571 0.010197770604591079
884 572 0.017389115115240918
884 573 -0.0048509934067992363
884 574 -0.01012535479248465
884 575 -0.029423605959229264
884 576 -0.020241285590668043
884 643 0.0077254059787096197
884 644 0.010904517168849836
884 645 0.0066980475784861691
884 655 -0.0075068423586684098
884 656 -0.017030763386146543
884 657 0.015248804592228885
884 871 -0.012573314137504649
884 872 -0.010182437936430297
884 873 -0.00012324122378543252
884 877 0.019213211222300183
884 878 -0.065123633132444403
884 879 0.00099698490478060875
884 883 0.020199429727096006
884 884 0.20926715274343888
885 382 0.010548312959618097
885 383 0.017849874307529205
885 384 -0.02990467286807957
885 385 -0.01039864444969075
885 386 0.0044009287179724334
885 387 0.0056978791652115548
885 451 0.0109019021602327
885 452 -0.0081505435126563927
885 453 -0.011751510915066135
885 478 -0.011246811360335337
885 479 -0.018111157635712642
885 480 -0.031767074198314225
885 571 0.010452142290421037
885 572 -0.0048509934067992371
885 573 0.0065585841770837141
885 574 -0.0098801282702621548
885 575 -0.020241285590668043
885 576 -0.025306640294857755
885 643 -0.011471411335379355
885 644 0.0066980475784861682
885 645 -0.0094252864805146851
885 655 0.0107398209956338
885 656 0.015248804592228882
885 657 -0.027736866262607882
885 871 0.00024116645313241767
885 872 -0.00012324122378543252
885 873 -0.010150061677777903
885 877 -0.00055634810629234506
885 878 0.00099698490478060853
885 879 -0.020305503715414393
885 883 0.00015722087144193358
885 884 0.0016457879060478059
885 885 0.16447945835200628
886 121 0.00045283970901273624
886 122 0.0080105231175768132
886 123 -0.0079954520983777175
886 124 -0.011325685515434999
886 125 -0.008831105610800017
886 126 0.0088159453433887397
886 379 -0.0023843339549743776
886 380 0.0072445856107772313
886 381 0.013995930971919771
886 382 -0.021035585990466569
886 383 -0.0072325430943414055
886 384 -0.01332745503398825
886 574 -0.00749129434942387
886 575 -0.00073777587043177524
886 576 0.013348189000285064
886 577 0.0022061792287865257
886 578 0.00068134331873074888
886 579 -0.012848754987595374
886 688 -0.0003650174193848073
886 689 -0.015659058664283458
886 690 -0.0080126642447043549
886 724 -0.024311702052320985
886 725 0.01611519947159705
886 726 0.0077203544420467295
886 868 -0.038046120708594179
886 869 -0.0035860954328723596
886 870 0.0030049106548818137
886 871 -0.0075994856533642659
886 872 0.015937216976926207
886 873 -0.00048639720499232787
886 883 -0.0082809199965713457
886 884 -0.016080635419533317
886 885 0.00027992242695548523
886 886 0.16372246782074448
887 121 0.0080105231175768132
887 122 0.00096225536995763524
887 123 0.0083830534400401637
887 124 -0.008831105610800017
887 125 -0.021032253793454199
887 126 0.016444973563513345
887 379 0.0072445856107772304
887 380 0.0083155389653942133
887 381 -0.0033251810898258854
887 382 -0.0072325430943414055
887 383 -0.035138342306183276
887 384 -0.02591367099389328
887 574 -0.00073777587043177568
887 575 -0.0057870247116242942
887 576 0.0082487049721276431
887 577 0.0006813433187307492
887 578 0.010333240381269664
887 579 -0.0040051931775058943
887 688 -0.015659058664283458
887 689 -0.01155436236576652
887 690 -0.0031434050566391276
887 724 0.01611519947159705
887 725 -0.072245845524328986
887 726 -0.02820296605125483
887 868 -0.0035860954328723596
887 869 -0.00032272899517554309
887 870 0.00067081295283111394
887 871 0.015937216976926204
887 872 -0.03238916813026551
887 873 0.00093754064442856482
887 883 -0.016080635419533317
887 884 -0.036230572472202544
887 885 0.0021234306476066132
887 886 0.0082168362084963312
887 887 0.20173484936860808
888 121 -0.0079954520983777175
888 122 0.0083830534400401637
888 123 0.00094707106764302471
888 124 0.0088159453433887397
888 125 0.016444973563513342
888 126 -0.020973995826198716
888 379 0.013995930971919769
888 380 -0.0033251810898258854
888 381 -0.0085451393122049513
888 382 -0.01332745503398825
888 383 -0.025913670993893283
888 384 -0.059497940770694549
888 574 0.013348189000285062
888 575 0.0082487049721276413
888 576 -0.02790303958332414
888 577 -0.012848754987595374
888 578 -0.0040051931775058943
888 579 -0.011283560154823321
888 688 -0.0080126642447043549
888 689 -0.003143405056639128
888 690 0.0059238599216246482
888 724 0.0077203544420467287
888 725 -0.02820296605125483
888 726 -0.037309095791006885
888 868 0.0030049106548818145
888 869 0.00067081295283111415
888 870 -0.0025486940011460752
888 871 -0.00048639720499232841
888 872 0.00093754064442856406
888 873 -0.0051483024417486346
888 883 0.00027992242695548577
888 884 0.0021234306476066132
888 885 -0.00070008379419701143
888 886 -0.0085691781091021303
888 887 0.028131410294467057
888 888 0.17493182103078053
889 118 0.00041626886104327349
889 119 0.0080138220689860273
889 120 -0.0079809997769617214
889 121 -0.0086341671648683185
889 122 -0.0080239229066310317
889 123 0.0080153938608427712
889 382 0.00065558461348491919
889 383 0.0072512442113716368
889 384 0.013305365704019044
889 385 -0.020981231474828391
889 386 -0.0072335279698219936
889 387 -0.013322572973890766
889 571 -0.0072160737676071982
889 572 -0.00071055309933364379
889 573 0.013333055863516772
889 574 -4.0451575027139128e-05
889 575 0.00058712090908466996
889 576 -0.013363604878818696
889 685 -0.024473125384473979
889 686 0.016314468648164843
889 687 0.0080066419620484618
889 724 -0.00046418800186462356
889 725 -0.016032472034664541
889 726 -0.0077176779846395999
889 883 -0.0073422762464187517
889 884 0.016257010880820266
889 885 -0.00021652183250137291
889 886 -0.04554134111800838
889 887 -0.0040784906118420446
889 888 0.0040746488392825551
889 889 0.16721516952854776
890 118 0.008013822068986029
890 119 0.00092565575300751143
890 120 0.0083895054248631744
890 121 -0.0080239229066310334
890 122 -0.019390238223102998
890 123 0.015662573286305621
890 382 0.0072512442113716368
890 383 0.0087096673483835815
890 384 -0.0025958596525659976
890 385 -0.0072335279698219944
890 386 -0.0349315555884777
890 387 -0.025801603368867082
890 571 -0.00071055309933364466
890 572 -0.0055213268903974355
890 573 0.0082543425340169847
890 574 0.00058712090908466952
890 575 0.0098876528985777229
890 576 -0.0038803973551649576
890 685 0.016314468648164843
890 686 -0.072186701712865647
890 687 -0.028537441688632224
890 724 -0.016032472034664545
890 725 -0.0083228627995338179
890 726 -0.0022892596667711171
890 883 0.01625701088082027
890 884 -0.028899800733376009
890 885 0.00074842780131341002
890 886 -0.0040784906118420446
890 887 -0.0066455857862286879
890 888 -0.00034951014589547455
890 889 0.0077389793112347966
890 890 0.19899534561083473
891 118 -0.0079809997769617214
891 119 0.0083895054248631726
891 120 0.00093805627139384668
891 121 0.0080153938608427729
891 122 0.015662573286305621
891 123 -0.019334819854453844
891 382 0.013305365704019044
891 383 -0.0025958596525659972
891 384 -0.0058991853703451742
891 385 -0.013322572973890766
891 386 -0.025801603368867086
891 387 -0.059346178713487574
891 571 0.01333305586351677
891 572 0.0082543425340169847
891 573 -0.02707067664569526
891 574 -0.013363604878818694
891 575 -0.0038803973551649572
891 576 -0.010042608232491833
891 685 0.0080066419620484601
891 686 -0.028537441688632228
891 687 -0.037939992825494144
891 724 -0.0077176779846395999
891 725 -0.0022892596667711167
891 726 0.0063934392123537898
891 883 -0.00021652183250137248
891 884 0.00074842780131341002
891 885 -0.0046429536477408887
891 886 0.0040746488392825551
891 887 -0.00034951014589547472
891 888 -0.0078929003447039126
891 889 -0.0081744587418690669
891 890 0.029043164489525475
891 891 0.17312747311707649
892 385 -0.010114615547337818
892 386 -0.0056717620925663273
892 387 0.010475809796141601
892 388 0.0026982594967207615
892 389 0.0059627134455625822
892 390 -0.010213771918428071
892 442 -0.016972460664957844
892 443 -0.0081525814806458208
892 444 -0.013690990043395575
892 478 -0.0030183080022250768
892 479 0.0087913763406896207
892 480 0.013297977170487356
892 571 -0.0074501943293150911
892 572 -0.0011597795204135054
892 573 -0.0016894834524002842
892 625 -0.0035422555579413565
892 626 -0.0083932322952638104
892 627 0.013056527939362106
892 655 -0.00089359987693736736
892 656 0.007171592505713335
892 657 -0.013351158543071165
892 883 -0.063261112425770732
892 884 -0.013456810272662876
892 885 9.4397216341512167e-05
892 889 -0.00822536655999467
892 890 -0.016090068240873327
892 891 2.6151965348135929e-05
892 892 0.18926753555803702
893 385 -0.0056717620925663265
893 386 -0.015237842507241098
893 387 0.01773103025777235
893 388 0.0059627134455625831
893 389 0.014947757086289686
893 390 0.0039409946879654881
893 442 -0.008152581480645819
893 443 -0.026235089718891359
893 444 -0.017232569166789346
893 478 0.0087913763406896207
893 479 0.0029381341940371074
893 480 -0.0080271432248707301
893 571 -0.0011597795204135045
893 572 -0.022059266090277418
893 573 -0.021123475944500945
893 625 -0.0083932322952638104
893 626 -0.0025211952133066123
893 627 0.011748693909061308
893 655 0.007171592505713335
893 656 0.0088273615659270437
893 657 0.0055291992788960046
893 883 -0.013456810272662876
893 884 -0.013812940491591746
893 885 0.00019389923430328362
893 889 -0.016090068240873327
893 890 -0.036105931380040444
893 891 0.001658064974172818
893 892 0.015412648241163052
893 893 0.1903624053725978
894 385 0.010475809796141607
894 386 0.01773103025777235
894 387 -0.029829778473211901
894 388 -0.010213771918428071
894 389 0.0039409946879654881
894 390 0.0055648639371116883
894 442 -0.013690990043395575
894 443 -0.017232569166789346
894 444 -0.035166467627005191
894 478 0.013297977170487358
894 479 -0.0080271432248707284
894 480 -0.016234039041410724
894 571 -0.0016894834524002846
894 572 -0.021123475944500942
894 573 -0.024872256474739209
894 625 0.013056527939362104
894 626 0.011748693909061308
894 627 -0.019571268112898454
894 655 -0.013351158543071165
894 656 0.0055291992788960038
894 657 -0.012537202030564687
894 883 9.4397216341511516e-05
894 884 0.00019389923430328319
894 885 -0.011467811676702411
894 889 2.6151965348136796e-05
894 890 0.0016580649741728178
894 891 -0.00051944566554107635
894 892 -0.0089005500824920862
894 893 0.0063566821889791446
894 894 0.16149357886235333
895 61 -0.0089825190076650904
895 62 0.0081307585058559059
895 63 0.0081226136584825574
895 64 -1.8303552698760407e-05
895 65 -0.0081413994131288477
895 66 -0.0082575070715435635
895 193 0.010834495340180174
895 194 0.0053100361426438886
895 195 -0.0052445511053707868
895 325 -0.012577864953159502
895 326 0.0076023363024219246
895 327 -0.013525534598898641
895 328 -0.00074746271292298687
895 329 -0.0073967034321383365
895 330 0.013282796587407407
895 508 0.0018846888274416476
895 509 -0.0086931775225763831
895 510 -0.01328096350852212
895 511 -0.01424824028939126
895 512 0.004845480747515207
895 513 0.016618167006913626
895 757 -0.042116562512264887
895 758 -0.024073423972098964
895 759 0.0079714799755187197
895 772 -0.0015013168179015891
895 773 0.016018542296702094
895 774 -0.00014516968671551833
895 880 -0.067641434173200954
895 881 -0.0085544703949523189
895 882 8.8907512746440841e-05
895 895 0.19646932586387164
896 61 0.0081307585058559076
896 62 -0.019044009279032607
896 63 -0.015343608641103304
896 64 -0.0081413994131288477
896 65 0.0047282482774937042
896 66 -0.0076694621390114579
896 193 0.0053100361426438886
896 194 -0.0033445070160764323
896 195 0.011157649151032158
896 325 0.0076023363024219238
896 326 -0.015385013501532156
896 327 0.016530759566074478
896 328 -0.0073967034321383357
896 329 3.7936577413841266e-07
896 330 0.0075604503923936764
896 508 -0.0086931775225763848
896 509 0.0055142853660726972
896 510 -0.0078593220110965492
896 511 0.0048454807475152087
896 512 -0.00088352605003572256
896 513 -0.0053433582261363478
896 757 -0.024073423972098967
896 758 -0.072769517344234716
896 759 0.015056990662066894
896 772 0.01601854229670209
896 773 -0.0099261600610289439
896 774 0.0015080873060735955
896 880 -0.0085544703949523189
896 881 -0.02785890142303072
896 882 -0.00036224968707029154
896 895 0.011212247225537243
896 896 0.206758246926007
897 61 0.0081226136584825574
897 62 -0.015343608641103306
897 63 -0.019860068711349363
897 64 -0.0082575070715435652
897 65 -0.0076694621390114587
897 66 0.003038736251657596
897 193 -0.0052445511053707851
897 194 0.011157649151032158
897 195 -0.0068249882581865387
897 325 -0.013525534598898643
897 326 0.016530759566074478
897 327 -0.038972937413272499
897 328 0.013282796587407407
897 329 0.0075604503923936781
897 330 -0.0018828771320890342
897 508 -0.01328096350852212
897 509 -0.0078593220110965492
897 510 0.00064099854424779553
897 511 0.016618167006913626
897 512 -0.0053433582261363461
897 513 -0.024971363689577294
897 757 0.0079714799755187214
897 758 0.015056990662066894
897 759 -0.031384230377634562
897 772 -0.00014516968671551876
897 773 0.0015080873060735953
897 774 0.0039766441546172874
897 880 8.8907512746440841e-05
897 881 -0.00036224968707029284
897 882 -0.024719262063039881
897 895 -0.010366049824206166
897 896 -0.013934421620764076
897 897 0.15914485489130456
898 322 0.0048810832697422151
898 323 -0.0087109805333911924
898 324 -0.0093339576750698598
898 325 -0.010889400379100463
898 326 3.8909444851949192e-05
898 327 -0.00094248838829981494
898 328 0.0014950961604107112
898 329 0.0076511105226436836
898 330 0.010266822360943673
898 442 -0.017197736971615554
898 443 -0.0088874312150062883
898 444 0.013126855849084948
898 472 -0.018084210733695941
898 473 0.0081737105425418004
898 474 -0.012517588383020696
898 508 0.0044821192494298341
898 509 0.0099614338287730628
898 510 -0.0086867550522322246
898 511 -0.011160130850453562
898 512 -1.8427793141253743e-05
898 513 0.00051114544267211257
898 514 0.0078296721561843599
898 515 -0.0091663070440129724
898 516 0.0082659434598058041
898 625 -0.0092068225086782765
898 626 -0.008640347443382896
898 627 -0.012232089880488576
898 661 -0.0097624144315183511
898 662 0.0092166879679941079
898 663 0.01257752184426935
898 880 0.0053826586591369666
898 881 0.014584172905188415
898 882 -0.00053860909673328307
898 892 -0.0065732721278323426
898 893 -0.018046608782944604
898 894 -6.3263914102477123e-06
898 895 -0.014331514420786434
898 896 -0.00091938032759626264
898 897 0.00023243347063513047
898 898 0.18159687536894856
899 322 -0.0087109805333911924
899 323 0.015611781317448378
899 324 -0.008071099177132484
899 325 3.890944485194846e-05
899 326 -0.016186112103566849
899 327 -0.017649437904168862
899 328 0.0076511105226436836
899 329 0.0090156032110641025
899 330 -0.0082588101548564524
899 442 -0.00888743121500629
899 443 -0.020960526387912466
899 444 0.018486585515940908
899 472 0.0081737105425418021
899 473 -0.02217064993561297
899 474 0.018545488664836837
899 508 0.0099614338287730628
899 509 0.0056030567859554382
899 510 0.010409997560399526
899 511 -1.8427793141252875e-05
899 512 -0.022082103161160459
899 513 0.018646404435262921
899 514 -0.0091663070440129706
899 515 0.014795716913695149
899 516 0.0087457944021064535
899 625 -0.008640347443382896
899 626 -0.010088209080403518
899 627 -0.017282240278698242
899 661 0.0092166879679941097
899 662 -0.012075995633344494
899 663 -0.017896291699044373
899 880 0.014584172905188413
899 881 -0.0011838426648019913
899 882 -0.0011992522328997642
899 892 -0.018046608782944604
899 893 -0.0095095962517723846
899 894 5.9395323501994571e-06
899 895 -0.00091938032759626091
899 896 -0.062034159584004274
899 897 -0.00049916751869877882
899 898 0.0062399908946006001
899 899 0.26943645564643531
900 322 -0.0093339576750698598
900 323 -0.008071099177132484
900 324 0.0029038570328966877
900 325 -0.00094248838829981462
900 326 -0.017649437904168862
900 327 -0.032703042767125025
900 328 0.010266822360943673
900 329 -0.0082588101548564524
900 330 -0.0038229994975047684
900 442 0.013126855849084946
900 443 0.018486585515940911
900 444 -0.03607701436374379
900 472 -0.012517588383020696
900 473 0.018545488664836837
900 474 -0.037712116864722367
900 508 -0.0086867550522322229
900 509 0.010409997560399528
900 510 -0.0029912272262824615
900 511 0.0005111454426721116
900 512 0.018646404435262918
900 513 -0.028264891291843144
900 514 0.0082659434598058041
900 515 0.0087457944021064535
900 516 0.0032637018964426683
900 625 -0.012232089880488576
900 626 -0.017282240278698242
900 627 -0.027848006071145473
900 661 0.01257752184426935
900 662 -0.017896291699044373
900 663 -0.029119314779662397
900 880 -0.00053860909673328393
900 881 -0.0011992522328997666
900 882 0.0091737748997626749
900 892 -6.3263914102469534e-06
900 893 5.9395323502005413e-06
900 894 0.0066364121290016578
900 895 0.00023243347063513047
900 896 -0.00049916751869877882
900 897 -0.010886916650077474
900 898 -0.00060579538651639822
900 899 -0.0019906015636206127
900 900 0.20825881378524921
901 115 -0.011883137215146259
901 116 0.012376654603299828
901 117 -0.0050066079356278579
901 118 -0.0085611139534965026
901 119 -0.0080136917118625549
901 120 0.0079835926685484521
901 385 0.00067683681797062851
901 386 0.0072324221123403346
901 387 0.013267648694517511
901 388 -0.029823395843760436
901 389 -0.00061412359401861604
901 390 -0.0011171947187180544
901 391 -0.0032569767245967181
901 392 -0.0037475968303437752
901 393 -0.010133308683773367
901 568 0.0067503897412012947
901 569 0.00051703596989992676
901 570 0.0082133453816814524
901 571 -0.0036256495754531976
901 572 0.00071558403480437337
901 573 -0.01352946082618529
901 685 -0.0004112356928076566
901 686 -0.016027816852030113
901 687 -0.0079456150479265981
901 700 -0.02006744728587858
901 701 0.014236829443088428
901 702 0.0069075963953865631
901 889 -0.045368801709984488
901 890 -0.0039936111664956586
901 891 0.0040145779936234839
901 892 -0.00186398096034648
901 893 0.015831001172867062
901 894 -2.3413387432598713e-05
901 901 0.18314049652091161
902 115 0.012376654603299828
902 116 -0.012330636124040848
902 117 0.0079312997268640145
902 118 -0.0080136917118625549
902 119 -0.019327899073745644
902 120 0.015656672338109787
902 385 0.0072324221123403363
902 386 0.0087107940990415918
902 387 -0.0025965434459748237
902 388 -0.00061412359401861712
902 389 -0.05528413314175562
902 390 -0.032842296427679274
902 391 -0.0037475968303437752
902 392 0.014751650042845352
902 393 0.0026092539471507638
902 568 0.00051703596989992806
902 569 0.0098989953423892166
902 570 0.0015319482190167676
902 571 0.00071558403480437294
902 572 9.2307742423613712e-05
902 573 0.00024668661990976119
902 685 -0.016027816852030113
902 686 -0.0082067959809686598
902 687 -0.0024182885075578549
902 700 0.01423682944308843
902 701 -0.067665746145272335
902 702 -0.026803294606194798
902 889 -0.0039936111664956586
902 890 -0.0065143184967808247
902 891 -0.00030200663230061666
902 892 0.015831001172867065
902 893 -0.017690481399406939
902 894 -0.0038026197749649799
902 901 -0.009685073811957292
902 902 0.22737561965655551
903 115 -0.0050066079356278579
903 116 0.0079312997268640145
903 117 -0.0064203905668747466
903 118 0.0079835926685484521
903 119 0.015656672338109787
903 120 -0.019187618841230006
903 385 0.013267648694517513
903 386 -0.0025965434459748232
903 387 -0.0058747490120972436
903 388 -0.0011171947187180531
903 389 -0.032842296427679274
903 390 -0.076272855820705379
903 391 -0.010133308683773365
903 392 0.0026092539471507634
903 393 0.0091864616874560816
903 568 0.0082133453816814524
903 569 0.0015319482190167683
903 570 -0.013153715348232599
903 571 -0.01352946082618529
903 572 0.00024668661990976098
903 573 -0.016103732063780789
903 685 -0.0079456150479265981
903 686 -0.0024182885075578545
903 687 0.0063999936338113815
903 700 0.0069075963953865623
903 701 -0.026803294606194801
903 702 -0.035509297838616734
903 889 0.004014577993623483
903 890 -0.0003020066323006172
903 891 -0.0077702073008704088
903 892 -2.3413387432598821e-05
903 893 -0.0038026197749649795
903 894 0.0022984418540529833
903 901 -0.021668452388412165
903 902 0.035660426764880099
903 903 0.20133742264541746
904 196 0.020765481185466554
904 197 -0.0027431776002436064
904 198 0.0034209003709427732
904 328 -0.0034408731909923063
904 329 -0.0054047777927672402
904 330 -0.011090865153246417
904 331 -0.0041566402205645437
904 332 0.004695870724215687
904 333 0.010625779634788952
904 442 0.0070608266026990565
904 443 0.00749563790501564
904 444 -0.009127052017726402
904 478 -0.0054638354105818803
904 479 -0.0059039240048533986
904 480 0.0087936626600745964
904 505 -0.032448811718727578
904 506 0.0056327776392044579
904 507 -0.02511271464396115
904 508 -0.032559237338466385
904 509 -0.0090760957683553526
904 510 0.018085880148710289
904 625 0.0036855882779636721
904 626 0.010258308701986789
904 627 0.0099542786236395224
904 655 -0.010256684294431337
904 656 -0.008006738054379783
904 657 -0.0094037584338429597
904 793 0.0089691215532564424
904 794 0.0092888073504385042
904 795 0.0033267212687628986
904 874 -0.022317327714177965
904 875 0.011788148266969851
904 876 0.0037396680526047641
904 877 -0.056262347406244057
904 878 -0.015141975917605287
904 879 0.00036712155463824482
904 880 -0.056540946073592849
904 881 -0.029797651737936838
904 882 -0.01367106107545547
904 883 0.0023146349529795085
904 884 -0.013477700613071171
904 885 0.00035497998068433805
904 892 -0.010950715787867476
904 893 0.012418585391887104
904 894 -8.3527454996544688e-05
904 898 -0.035205147955846137
904 899 -0.0050483091389004744
904 900 -0.00093259705188144268
904 904 0.22680691453912732
905 196 -0.0027431776002436064
905 197 -0.0005493714509355054
905 198 0.0093819717797682042
905 328 -0.0054047777927672411
905 329 0.00036046380609262938
905 330 -0.015033352489352714
905 331 0.0046958707242156878
905 332 0.00078684541244819798
905 333 -0.007074598537672486
905 442 0.0074956379050156417
905 443 0.013805984904169786
905 444 0.0086101554889896591
905 478 -0.0059039240048533986
905 479 -0.01219059418997008
905 480 0.01697457251343772
905 505 0.0056327776392044587
905 506 -0.0090264571067871138
905 507 0.0041501923638083537
905 508 -0.0090760957683553543
905 509 -0.022980232387632832
905 510 0.01468049037886905
905 625 0.010258308701986789
905 626 0.010428901112802593
905 627 -0.0086280708277128026
905 655 -0.008006738054379783
905 656 -0.023401436032378667
905 657 -0.020313712812655448
905 793 0.009288807350438506
905 794 -0.0065061342598184265
905 795 -0.0010747199327933508
905 874 0.011788148266969851
905 875 -0.011477079755501869
905 876 -0.003187579248576964
905 877 -0.015141975917605287
905 878 -0.013084302249603857
905 879 -0.00058941545097160731
905 880 -0.029797651737936841
905 881 -0.081622299834651718
905 882 -0.011478064637676134
905 883 -0.013477700613071174
905 884 -0.017937740426983206
905 885 0.0015710356793533307
905 892 0.012418585391887104
905 893 -0.055550864765784816
905 894 0.0011962664667907259
905 898 -0.0050483091389004744
905 899 0.0030347930627758262
905 900 -0.00061379789480751868
905 904 0.033022214648395123
905 905 0.22590952416175905
906 196 0.0034209003709427732
906 197 0.0093819717797682042
906 198 0.0087205693843723335
906 328 -0.011090865153246417
906 329 -0.015033352489352714
906 330 -0.017464337754675582
906 331 0.010625779634788951
906 332 -0.0070745985376724852
906 333 -0.017909627295523128
906 442 -0.009127052017726402
906 443 0.0086101554889896573
906 444 0.0030035305349504328
906 478 0.0087936626600745981
906 479 0.01697457251343772
906 480 -0.0269620959487493
906 505 -0.025112714643961146
906 506 0.0041501923638083537
906 507 -0.033902899801557328
906 508 0.018085880148710289
906 509 0.014680490378869052
906 510 -0.035859883448618644
906 625 0.0099542786236395207
906 626 -0.0086280708277128026
906 627 0.0023088090474756183
906 655 -0.0094037584338429615
906 656 -0.020313712812655451
906 657 -0.031929857073353739
906 793 0.0033267212687628986
906 794 -0.0010747199327933506
906 795 0.013790298644467283
906 874 0.0037396680526047637
906 875 -0.0031875792485769635
906 876 -0.010821856995787849
906 877 0.00036712155463824656
906 878 -0.00058941545097160731
906 879 -0.014502020386624521
906 880 -0.01367106107545547
906 881 -0.011478064637676135
906 882 -0.040447053391139888
906 883 0.00035497998068433761
906 884 0.0015710356793533307
906 885 0.0064225438369712711
906 892 -8.3527454996544688e-05
906 893 0.0011962664667907266
906 894 -0.008126816544697886
906 898 -0.00093259705188144268
906 899 -0.00061379789480751922
906 900 0.00034376589132882894
906 904 0.010752583536264
906 905 0.011428627161201979
906 906 0.20333693130116212
907 64 -0.0056929429116508879
907 65 0.0073753622673039696
907 66 0.0073744018274919439
907 67 0.0045999675174620081
907 68 -0.0073334999563357808
907 69 -0.0080270446130901972
907 190 0.018699343181355271
907 191 0.0018377133720171627
907 192 -0.0018305815738448139
907 322 -0.016315168685887824
907 323 0.0085286420457904022
907 324 -0.013253711004876427
907 325 0.0005525506199550933
907 326 -0.0069658574936246886
907 327 0.013298306329258559
907 511 -0.0075831660128776648
907 512 -0.0062152190101217916
907 513 -0.016105334743532096
907 514 -0.017718711192219332
907 515 0.0052129182013100402
907 516 0.01099458301945682
907 757 -0.013636640022278277
907 758 0.019707528515403017
907 759 -0.003810758236704541
907 796 -0.038176428096720443
907 797 -0.019084182230365627
907 798 0.0031982078321744619
907 895 -0.047023291591501995
907 896 0.0046591538418148514
907 897 0.0045033775835529224
907 898 -0.011806395593802071
907 899 -0.012776007878874843
907 900 9.5778399290174848e-05
907 907 0.18284163862333638
908 64 0.0073753622673039696
908 65 -0.015794695659882171
908 66 -0.015668327853441109
908 67 -0.0073334999563357799
908 68 0.0069795754051161559
908 69 -0.0091528343895028053
908 190 0.0018377133720171625
908 191 0.00026487744035317293
908 192 0.012068179555156783
908 322 0.0085286420457904005
908 323 -0.030089080225187883
908 324 0.024443572726403275
908 325 -0.0069658574936246886
908 326 0.0085999022385496622
908 327 0.0032347969105672421
908 511 -0.0062152190101217916
908 512 0.0090628340512483238
908 513 -0.0027708351145313203
908 514 0.0052129182013100402
908 515 -0.017006999659013072
908 516 -0.0099627493659963217
908 757 0.019707528515403021
908 758 -0.020168840646516945
908 759 0.0012454827589912509
908 796 -0.019084182230365624
908 797 -0.074329816837525056
908 798 0.014033215792424471
908 895 0.0046591538418148514
908 896 -0.0057553656763719742
908 897 -0.00080234723375999196
908 898 -0.01277600787887484
908 899 -0.050850911848735164
908 900 -0.00041215155571666683
908 907 -0.00813940425663791
908 908 0.21454465043422863
909 64 0.0073744018274919439
909 65 -0.015668327853441109
909 66 -0.016886193352757987
909 67 -0.0080270446130901972
909 68 -0.0091528343895028053
909 69 0.0056984571649258964
909 190 -0.0018305815738448134
909 191 0.012068179555156785
909 192 -0.0028782833661874386
909 322 -0.013253711004876429
909 323 0.024443572726403275
909 324 -0.046267876839911987
909 325 0.013298306329258557
909 326 0.0032347969105672426
909 327 -0.0082735074681290748
909 511 -0.016105334743532096
909 512 -0.0027708351145313216
909 513 -0.0083480547410782653
909 514 0.01099458301945682
909 515 -0.0099627493659963234
909 516 -0.035323768807153426
909 757 -0.0038107582367045431
909 758 0.0012454827589912501
909 759 -0.002526488869292071
909 796 0.0031982078321744619
909 797 0.014033215792424471
909 798 -0.03046086930015102
909 895 0.0045033775835529224
909 896 -0.0008023472337599925
909 897 -0.007298589546600621
909 898 9.5778399290174414e-05
909 899 -0.00041215155571666575
909 900 -0.008924874294809905
909 907 -0.0052937778113715476
909 908 -0.014650029891271408
909 909 0.16602722281532442
910 388 -0.00097142021876888568
910 389 -0.0044279836670811056
910 390 0.011133532998294679
910 391 -0.020194434957053673
910 392 0.00029256554143012366
910 393 0.0012672135291949378
910 394 0.0011860720720444824
910 395 0.0073245547838927463
910 396 -0.010381458722874704
910 460 -0.01079238854703321
910 461 -0.0097578877288317517
910 462 -0.01472786643306598
910 472 -0.016922548078069984
910 473 0.0076251885213650256
910 474 0.013926083415729063
910 565 0.0065860047694527961
910 566 0.0061587379511029395
910 567 0.005570380670496141
910 634 0.0045457232835255604
910 635 -0.0073941366242789575
910 636 0.011370220257308187
910 661 -0.0099027908788107168
910 662 0.006449516337481565
910 663 -0.015344345227622933
910 898 -0.0044020824756226115
910 899 0.018351604884398222
910 900 -0.00033697295422621069
910 901 0.0051427712699427079
910 902 -0.01163982826737358
910 903 -0.0015106631685233196
910 910 0.19744430644719874
911 388 -0.0044279836670811056
911 389 0.013488490752062019
911 390 0.0027141859928103145
911 391 0.00029256554143012323
911 392 -0.038676925896316952
911 393 0.02155873541589674
911 394 0.0073245547838927472
911 395 0.013542350075299324
911 396 0.0051808791073333343
911 460 -0.0097578877288317517
911 461 -0.010342348766815774
911 462 -0.01342590811644853
911 472 0.0076251885213650247
911 473 -0.027030424737600308
911 474 -0.018508576223147957
911 565 0.0061587379511029387
911 566 -0.0059591840712629619
911 567 -0.01485140890513556
911 634 -0.0073941366242789575
911 635 0.01037396265383916
911 636 0.0063422848782908065
911 661 0.0064495163374815642
911 662 -0.0058168846293535394
911 663 0.010566121752256647
911 898 0.018351604884398229
911 899 -0.011451036713091075
911 900 -4.0562611039809959e-07
911 901 -0.01163982826737358
911 902 0.00023024614346472396
911 903 0.0017307236852896488
911 910 -0.0023204183155289084
911 911 0.21643501415940439
912 388 0.011133532998294679
912 389 0.002714185992810314
912 390 -0.00069547772932681889
912 391 0.0012672135291949382
912 392 0.02155873541589674
912 393 -0.040210767175856053
912 394 -0.010381458722874706
912 395 0.0051808791073333343
912 396 0.0088841072979586808
912 460 -0.014727866433065982
912 461 -0.01342590811644853
912 462 -0.024482207666562429
912 472 0.013926083415729059
912 473 -0.018508576223147961
912 474 -0.037523345050225823
912 565 0.0055703806704961428
912 566 -0.01485140890513556
912 567 -0.017988605340635247
912 634 0.011370220257308187
912 635 0.0063422848782908074
912 636 -0.0092297104211550834
912 661 -0.015344345227622933
912 662 0.010566121752256647
912 663 -0.024920550755492793
912 898 -0.00033697295422621047
912 899 -4.0562611039853327e-07
912 900 0.0076645797516866699
912 901 -0.0015106631685233201
912 902 0.0017307236852896494
912 903 0.012086386454867065
912 910 -0.00046231341651501974
912 911 0.013257240929754737
912 912 0.18736598914685446
913 115 0.018091320766371634
913 116 -0.0037846756195495392
913 117 0.00062951757792712717
913 253 0.011451444938325218
913 254 -0.00038026383207678317
913 255 -0.00036545543925232678
913 391 -0.00075104164877938366
913 392 -0.0014404091359015039
913 393 -0.0070046275550951099
913 565 -0.045467141485838088
913 566 -0.0023503014739468886
913 567 0.024794644196344015
913 568 -0.038957811537831732
913 569 -0.001089430231800887
913 570 -0.023661253580214175
913 661 0.01560049392743618
913 662 -0.00070307998760203109
913 663 -3.9699003047198589e-05
913 700 -0.016709257129668132
913 701 -0.02046786711186872
913 702 -0.0024483866190571982
913 721 -0.031046802547317974
913 722 0.022808308996858692
913 723 0.00015281835760163579
913 901 -0.053953297262669245
913 902 0.010085617807429849
913 903 0.020181811434610272
913 910 -0.034708496065037793
913 911 -0.014029265377336108
913 912 -0.0053659940674015546
913 913 0.21777779359607055
914 115 -0.0037846756195495396
914 116 0.0082870833870201093
914 117 0.011513600035005882
914 253 -0.00038026383207678263
914 254 -0.0079184074913880576
914 255 -0.012992251391664957
914 391 -0.0014404091359015035
914 392 0.0038808004805739112
914 393 -0.0051038783289038513
914 565 -0.0023503014739468886
914 566 -0.017668463101360776
914 567 0.0014248012522407186
914 568 -0.0010894302318008868
914 569 -0.009657839151814878
914 570 0.00051864436451045141
914 661 -0.00070307998760203131
914 662 -0.0048438135177366129
914 663 0.0094906403447287593
914 700 -0.02046786711186872
914 701 -0.022609448128863306
914 702 -0.00011575569915432487
914 721 0.022808308996858696
914 722 -0.042265540656845485
914 723 -5.4543744966932539e-05
914 901 0.010085617807429849
914 902 -0.018533905255670356
914 903 -0.0059914593521838916
914 910 -0.014029265377336106
914 911 -0.053655711050958066
914 912 -0.013483981083409613
914 913 -0.0046713939858713475
914 914 0.17043930443735014
915 115 0.00062951757792712771
915 116 0.011513600035005884
915 117 0.0011026944753206194
915 253 -0.0003654554392523264
915 254 -0.012992251391664955
915 255 -0.0072707937465963917
915 391 -0.0070046275550951108
915 392 -0.0051038783289038504
915 393 -0.01854379588491448
915 565 0.024794644196344015
915 566 0.0014248012522407199
915 567 -0.039964902126917209
915 568 -0.023661253580214172
915 569 0.00051864436451045173
915 570 -0.029437334253005265
915 661 -3.969900304719844e-05
915 662 0.009490640344728761
915 663 0.0058913201711382496
915 700 -0.0024483866190571986
915 701 -0.00011575569915432603
915 702 -0.0036958497412222365
915 721 0.00015281835760163508
915 722 -5.4543744966933407e-05
915 723 -0.015242914382846407
915 901 0.020181811434610276
915 902 -0.0059914593521838934
915 903 -0.033451196946872895
915 910 -0.0053659940674015555
915 911 -0.013483981083409613
915 912 -0.029315685652340134
915 913 -0.011564770050224309
915 914 0.019323878543260634
915 915 0.16509622367200188
916 112 0.0093381691435413978
916 113 -0.00020764042076295793
916 114 8.0107479143741228e-05
916 256 0.0091958387986613346
916 257 0.0017668095048099836
916 258 0.0017133230766035899
916 391 -0.018701171415739251
916 392 0.0033786439887536317
916 393 0.017498256427789814
916 394 -0.016003801580139868
916 395 -0.0045016316922881477
916 396 -0.014980864200768646
916 562 0.010362341628107714
916 563 -0.0079887739948325386
916 564 0.011164956561425177
916 565 -0.010014332169927054
916 566 0.0059705689002884053
916 567 -0.014883744929507638
916 682 -0.029685703300783448
916 683 0.023936032471449625
916 684 -0.0033653612952355663
916 721 -0.042632449852982396
916 722 -0.027556794751300646
916 723 0.00013204477225719097
916 910 -0.0061985390957562479
916 911 0.01554952773714385
916 912 0.00088258789230726193
916 913 -0.028110544133197524
916 914 0.00069846165665970691
916 915 -0.0022095277780620221
916 916 0.18978797871290584
917 112 -0.00020764042076295932
917 113 -0.0083097389621121336
917 114 0.013289488731883684
917 256 0.0017668095048099836
917 257 -0.0050638660496677146
917 258 -0.013374777026378374
917 391 0.0033786439887536325
917 392 0.001374018046965249
917 393 -0.00292267965677207
917 394 -0.0045016316922881485
917 395 -0.0183041748537227
917 396 -0.0093658233391908808
917 562 -0.0079887739948325404
917 563 0.010633033982733136
917 564 0.0041469801854749199
917 565 0.0059705689002884053
917 566 -0.0090697014415790332
917 567 0.0087857814711108755
917 682 0.023936032471449629
917 683 -0.042073654885280927
917 684 0.0018333375628906848
917 721 -0.027556794751300646
917 722 -0.04655819154158438
917 723 -0.00061179170145054271
917 910 0.01554952773714385
917 911 -0.033128517656544627
917 912 -0.0065464855596567883
917 913 0.0006984616566597081
917 914 0.0066747661848610713
917 915 0.00021780439658327625
917 916 -0.0012258113261765216
917 917 0.17994491965447207
918 112 8.0107479143741607e-05
918 113 0.013289488731883686
918 114 -0.0094587072212513647
918 256 0.0017133230766035897
918 257 -0.013374777026378373
918 258 -0.008963435164169576
918 391 0.017498256427789811
918 392 -0.0029226796567720691
918 393 -0.020599224130039673
918 394 -0.014980864200768648
918 395 -0.0093658233391908825
918 396 -0.032491922902213324
918 562 0.011164956561425177
918 563 0.0041469801854749199
918 564 -0.0062062415121441365
918 565 -0.014883744929507637
918 566 0.008785781471110872
918 567 -0.023080776228883822
918 682 -0.0033653612952355659
918 683 0.001833337562890685
918 684 -0.012460675082326522
918 721 0.00013204477225719092
918 722 -0.00061179170145054303
918 723 -0.018815498549813632
918 910 0.00088258789230726128
918 911 -0.0065464855596567874
918 912 -0.004061857174554909
918 913 -0.002209527778062023
918 914 0.00021780439658327603
918 915 0.0031436149248615809
918 916 -0.0033253918996535847
918 917 0.0011825510185089708
918 918 0.14665123303882072
919 109 0.010477482890619921
919 110 4.066168544665039e-05
919 111 -0.00047706134282776247
919 394 -0.044812488122731003
919 395 0.001394833732248076
919 396 0.026149426706368526
919 397 -0.047703992198331296
919 398 0.00085263921696996834
919 399 -0.027612764555214622
919 457 0.013104603666213551
919 458 0.0010388510903003247
919 459 -0.00011557515109228574
919 559 0.012720908531797257
919 560 0.0028679117448792138
919 561 0.005369349033467823
919 682 -0.0094519016330115221
919 683 -0.012222549145660851
919 684 -0.0023593884667085247
919 718 -0.016610552288987234
919 719 0.01654604299859834
919 720 0.0042492185893149813
919 916 -0.01609920070251205
919 917 -0.0016494719399098878
919 918 -0.0039823351733988275
919 919 0.19297641499788334
920 109 4.0661685446650552e-05
920 110 -0.0092564438872031942
920 111 0.012996607598194553
920 394 0.0013948337322480765
920 395 -0.020279161359122881
920 396 -0.00028903585040444216
920 397 0.00085263921696996812
920 398 -0.015007054317835923
920 399 -0.00025144521738689656
920 457 0.0010388510903003244
920 458 -0.0065751587221570592
920 459 -0.010235346745933646
920 559 0.0028679117448792138
920 560 0.0063728462906359577
920 561 0.0035424724626157474
920 682 -0.012222549145660849
920 683 -0.018527498687252664
920 684 -0.0026805982023609559
920 718 0.01654604299859834
920 719 -0.031651098343735029
920 720 -0.0067300041426819534
920 916 -0.0016494719399098873
920 917 0.0077570201614704029
920 918 -0.0011694121694437441
920 919 0.0013547044332160526
920 920 0.15814110465758821
921 109 -0.00047706134282776296
921 110 0.012996607598194553
921 111 -0.0069233694199532896
921 394 0.026149426706368523
921 395 -0.00028903585040444216
921 396 -0.045675848776308856
921 397 -0.027612764555214622
921 398 -0.00025144521738689575
921 399 -0.040955884293793106
921 457 -0.00011557515109228601
921 458 -0.010235346745933646
921 459 0.0027026850286928626
921 559 0.0053693490334678238
921 560 0.0035424724626157466
921 561 -0.015794907767946408
921 682 -0.0023593884667085247
921 683 -0.0026805982023609576
921 684 0.0013447448786204057
921 718 0.0042492185893149821
921 719 -0.0067300041426819543
921 720 -0.010874588940301624
921 916 -0.0039823351733988292
921 917 -0.0011694121694437432
921 918 0.0099881357245759864
921 919 0.010763741601784477
921 920 -0.0018202895670210734
921 921 0.17426174956745413
922 394 0.007680804383732971
922 395 -0.0039494269335127981
922 396 0.0030893047411819953
922 457 -0.0039849405877556282
922 458 -0.0056244354020963828
922 459 -0.014897614624502583
922 460 -0.0041339034347770282
922 461 0.0079538560024391726
922 462 0.013517789003784772
922 559 -0.00084438063408881882
922 560 0.010572080217077721
922 561 0.0098404573118442574
922 562 -0.011357211086783326
922 563 9.4164603207679432e-05
922 564 -0.00086084743380383604
922 565 0.002526518020240245
922 566 -0.0099655501849188234
922 567 -0.010629040539009444
922 634 -0.013593304637315777
922 635 0.0093488421568360732
922 636 -0.014740773150051035
922 637 -0.015499769963077783
922 638 -0.010153572030106268
922 639 0.015026561987363076
922 910 -0.055330841295187283
922 911 0.00014653795937719929
922 912 0.010424391418678023
922 916 -0.0041302627465989242
922 917 -0.013946813570825074
922 918 -0.00054588879597924141
922 919 -0.02232246172104933
922 920 0.019980548489699348
922 921 -0.0082756408406062538
922 922 0.18921067813883249
923 394 -0.003949426933512799
923 395 -0.0034254799768999051
923 396 0.01442597677661266
923 457 -0.0056244354020963819
923 458 0.0041146547780662986
923 459 -0.0057647043269543792
923 460 0.0079538560024391726
923 461 -0.0047062781902348014
923 462 -0.012189169439712799
923 559 0.010572080217077723
923 560 0.0072836079036262174
923 561 -0.0053273509136506584
923 562 9.4164603207679432e-05
923 563 -0.015202096782600868
923 564 -0.017413317170596548
923 565 -0.0099655501849188251
923 566 0.011871516243250613
923 567 -0.0054290857414071424
923 634 0.0093488421568360732
923 635 -0.010308263661920312
923 636 0.012390421606752253
923 637 -0.010153572030106268
923 638 -0.021548149020857423
923 639 0.017767293855347546
923 910 0.00014653795937720157
923 911 -0.0078965221219556604
923 912 0.00097027324871417535
923 916 -0.013946813570825074
923 917 -0.031413781926299969
923 918 0.0060267735590196379
923 919 0.019980548489699351
923 920 -0.026125110095819536
923 921 0.011723168573912568
923 922 -0.0022623247191920267
923 923 0.19249293460672984
924 394 0.0030893047411819953
924 395 0.01442597677661266
924 396 -0.016054985940312811
924 457 -0.014897614624502582
924 458 -0.0057647043269543792
924 459 -0.016766338585739164
924 460 0.01351778900378477
924 461 -0.012189169439712797
924 462 -0.021976819198970373
924 559 0.0098404573118442574
924 560 -0.0053273509136506584
924 561 0.0061997913604144254
924 562 -0.00086084743380383517
924 563 -0.017413317170596552
924 564 -0.03284140318392928
924 565 -0.010629040539009444
924 566 -0.0054290857414071424
924 567 0.0063743796023303084
924 634 -0.014740773150051035
924 635 0.012390421606752253
924 636 -0.026946948100091316
924 637 0.015026561987363074
924 638 0.017767293855347546
924 639 -0.03120603235500799
924 910 0.010424391418678023
924 911 0.00097027324871417492
924 912 -0.010563862630839116
924 916 -0.00054588879597924065
924 917 0.0060267735590196362
924 918 -0.0017066119647954434
924 919 -0.0082756408406062538
924 920 0.011723168573912564
924 921 -0.013821108317277387
924 922 0.0003808647562771033
924 923 -0.009411049622946881
924 924 0.17095711543855185
925 319 0.0034780897379685328
925 320 -0.005070852667413475
925 321 -0.010343876705989651
925 322 -0.0075654928462607065
925 323 0.0063195715913540052
925 324 0.011098229830867921
925 460 -0.0066789827702161807
925 461 0.0074680559156218105
925 462 -0.010808907864187877
925 472 0.0066104841975358763
925 473 -0.0070797878954182852
925 474 0.0099820246633621022
925 514 -0.017011659225001863
925 515 0.010438942013180911
925 516 -0.015159519105938116
925 517 -0.0084609532935475788
925 518 -0.0059334402986569749
925 519 0.011982364613976754
925 634 -0.013794254656199274
925 635 7.0737087882241385e-05
925 636 0.00025747768588832605
925 637 0.0029370146906243823
925 638 0.0078232999122674462
925 639 0.010258431459436302
925 661 0.0037880856741454166
925 662 -0.010731931245292165
925 663 -0.010871758445593464
925 898 -0.033848972070592107
925 899 0.00082865985820337841
925 900 0.00091905196601912498
925 907 -0.01835460237388499
925 908 0.021124317154733778
925 909 0.0023725356077123703
925 910 -0.0053995092622577297
925 911 -0.012160244502584051
925 912 0.00017767946481508446
925 922 -0.0090439698901654316
925 923 0.016725643117998797
925 924 0.0011137614390143238
925 925 0.18910359930399812
926 319 -0.0050708526674134759
926 320 0.013502260567653742
926 321 -0.0060268492334211738
926 322 0.0063195715913540061
926 323 -0.008025553593698902
926 324 -0.016651562179128606
926 460 0.0074680559156218088
926 461 -0.013898083910838379
926 462 0.017873098354229698
926 472 -0.0070797878954182852
926 473 0.013443046965361173
926 474 0.0080756370926781951
926 514 0.010438942013180913
926 515 -0.014345973778615949
926 516 0.017533212829279277
926 517 -0.005933440298656974
926 518 -0.0056893192769482707
926 519 0.012136557608274569
926 634 7.0737087882241818e-05
926 635 -0.024548383763525562
926 636 -0.020554970061405331
926 637 0.0078232999122674462
926 638 0.012800450574025877
926 639 -0.0045797298309392291
926 661 -0.010731931245292169
926 662 0.010405341365886982
926 663 -0.0083292715993754027
926 898 0.00082865985820337732
926 899 0.0059456693626870373
926 900 -0.00024671399603560075
926 907 0.021124317154733778
926 908 -0.036999909692315709
926 909 -0.0024304208612676726
926 910 -0.012160244502584051
926 911 -0.046197665443759563
926 912 0.00056825542252753459
926 922 0.016725643117998797
926 923 -0.03209215638823143
926 924 0.0049409913730454743
926 925 -0.0062032192406182669
926 926 0.22495968737447158
927 319 -0.010343876705989651
927 320 -0.0060268492334211738
927 321 -0.0067446841229007052
927 322 0.011098229830867921
927 323 -0.016651562179128603
927 324 -0.025210389245368461
927 460 -0.010808907864187877
927 461 0.017873098354229698
927 462 -0.026855510245865587
927 472 0.0099820246633621022
927 473 0.0080756370926781968
927 474 0.0020002320984441667
927 514 -0.015159519105938116
927 515 0.017533212829279277
927 516 -0.030427721945241067
927 517 0.011982364613976754
927 518 0.012136557608274571
927 519 -0.019188734762980539
927 634 0.0002574776858883267
927 635 -0.020554970061405331
927 636 -0.036836916114222483
927 637 0.010258431459436302
927 638 -0.00457972983093923
927 639 0.0084420816758421103
927 661 -0.010871758445593464
927 662 -0.0083292715993754027
927 663 0.0011100093935943092
927 898 0.00091905196601912531
927 899 -0.0002467139960356001
927 900 0.0014697831888013163
927 907 0.0023725356077123703
927 908 -0.0024304208612676735
927 909 -0.0043402830708030929
927 910 0.00017767946481508489
927 911 0.00056825542252753405
927 912 -0.0029052927469676833
927 922 0.0011137614390143238
927 923 0.0049409913730454752
927 924 -0.0021848360612570631
927 925 0.012168212525542656
927 926 -0.0010154128357079259
927 927 0.1784541326083888
928 67 -0.011276462152571071
928 68 0.0087976781907430981
928 69 0.0088842968305852255
928 70 0.0039126978058582011
928 71 -0.0074829565326368077
928 72 -0.0081605958654241348
928 319 -0.016121291697073391
928 320 0.0059638314034267167
928 321 -0.0087304505950600454
928 322 -0.0020264856541590921
928 323 -0.0092292497929417974
928 324 0.010946646033507364
928 760 -0.015180590232820078
928 761 -0.011871970376016495
928 762 0.0049440280068990625
928 796 0.00089376570472724513
928 797 0.011519678409879962
928 798 -0.0052129312701686354
928 907 -0.024616514650919914
928 908 -0.001344844372257171
928 909 -0.0043360523992750175
928 925 -0.010859369243981431
928 926 -0.010575256657661116
928 927 -0.0033492491357026317
928 928 0.13427927984441423
929 67 0.0087976781907430981
929 68 -0.020697002599959963
929 69 -0.01623479313882558
929 70 -0.0074829565326368069
929 71 0.0021573292961072979
929 72 -0.0065754445261486235
929 319 0.0059638314034267149
929 320 -0.034897288447647508
929 321 0.02134751776051871
929 322 -0.0092292497929417974
929 323 0.0019555263321857316
929 324 0.0061419478345383673
929 760 -0.011871970376016493
929 761 -0.049427775605429339
929 762 0.014310565652435863
929 796 0.011519678409879962
929 797 -0.0044944366860329614
929 798 0.0054200758066793135
929 907 -0.0013448443722571713
929 908 0.0033055474101730178
929 909 -0.0016411754921340741
929 925 -0.010575256657661115
929 926 -0.043730060831114255
929 927 -0.00902487832549944
929 928 0.002192573057686358
929 929 0.17306007868275539
930 67 0.0088842968305852255
930 68 -0.01623479313882558
930 69 -0.021014052782970909
930 70 -0.0081605958654241348
930 71 -0.0065754445261486244
930 72 0.0025483253857490097
930 319 -0.0087304505950600454
930 320 0.021347517760518714
930 321 -0.046111729397126017
930 322 0.010946646033507364
930 323 0.0061419478345383673
930 324 -0.0043127246225102799
930 760 0.0049440280068990625
930 761 0.014310565652435863
930 762 -0.016269525090696093
930 796 -0.0052129312701686354
930 797 0.0054200758066793127
930 798 0.0070010666522806724
930 907 -0.0043360523992750184
930 908 -0.0016411754921340737
930 909 -0.00087225278977101379
930 925 -0.0033492491357026322
930 926 -0.0090248783254994417
930 927 -0.011331467260249254
930 928 0.0015072587102631227
930 929 -0.0092505161910489322
930 930 0.16527832610496582
931 106 0.022709525844239777
931 107 -0.00012202381604400625
931 108 0.00010334880820590811
931 262 0.010297850806879158
931 263 -3.5147272309124164e-05
931 264 -0.00011262992407185023
931 397 -0.006257202662659599
931 398 0.0043594214096453121
931 399 0.011527208724674488
931 400 -0.0029377714658897873
931 401 -0.0035887806458864439
931 402 -0.013545272332708455
931 556 -0.046483249208301741
931 557 -0.00071876943227187635
931 558 0.026962951514491393
931 559 -0.052103176583602792
931 560 0.00068046328274838576
931 561 -0.028180190287516674
931 664 0.012500688225614294
931 665 -0.00020906319727928281
931 666 0.00012744297556667875
931 706 -0.026586793407659105
931 707 0.021626464575038171
931 708 -0.00043224562784289979
931 718 -0.031056621623891289
931 719 -0.024120417056121876
931 720 0.00086591820935058529
931 919 -0.025592963928315473
931 920 -0.00019183816662430176
931 921 0.0046221227225929076
931 931 0.21711357553159683
932 106 -0.00012202381604400672
932 107 0.0046298789627917192
932 108 0.011531863221002562
932 262 -3.5147272309123947e-05
932 263 -0.0093894256420746468
932 264 -0.013068260418872754
932 397 0.0043594214096453121
932 398 -0.0034008473800161915
932 399 -0.0064105344163762935
932 400 -0.0035887806458864439
932 401 0.0094831206626612759
932 402 -0.0013981439409985847
932 556 -0.00071876943227187581
932 557 -0.017866170904603532
932 558 0.00052244109382488981
932 559 0.0006804632827483863
932 560 -0.017542570173420074
932 561 0.00092924306407037526
932 664 -0.0002090631972792834
932 665 -0.0084491531846779613
932 666 0.010080363090096151
932 706 0.021626464575038175
932 707 -0.037596403355096605
932 708 0.00027163749163811371
932 718 -0.024120417056121876
932 719 -0.036310223900660382
932 720 0.00078219467026566247
932 919 -0.00019183816662430176
932 920 0.0073772638752562653
932 921 -0.00028700164913092658
932 931 0.0027978830494289329
932 932 0.17869884915685796
933 106 0.00010334880820590749
933 107 0.011531863221002563
933 108 0.0011854620150853897
933 262 -0.00011262992407185088
933 263 -0.013068260418872754
933 264 -0.0072300072618252404
933 397 0.011527208724674486
933 398 -0.0064105344163762927
933 399 -0.022595222924025868
933 400 -0.013545272332708455
933 401 -0.0013981439409985852
933 402 -0.013409490261662025
933 556 0.026962951514491393
933 557 0.00052244109382489144
933 558 -0.043252601956969151
933 559 -0.028180190287516678
933 560 0.00092924306407037526
933 561 -0.043210956194121304
933 664 0.00012744297556667875
933 665 0.010080363090096153
933 666 0.0025984070244689295
933 706 -0.00043224562784289919
933 707 0.00027163749163811415
933 708 -0.012181355931967126
933 718 0.00086591820935058453
933 719 0.00078219467026566139
933 720 -0.0113440586840365
933 919 0.0046221227225929067
933 920 -0.00028700164913092615
933 921 0.0040477013090319466
933 931 0.0015558367627574398
933 932 0.011681784854847017
933 933 0.16463239329530494
934 397 -0.00063054337723406333
934 398 0.0082533222404266894
934 399 -0.0048075321027286812
934 457 -0.016637975588129676
934 458 0.0054848239594473078
934 459 0.016042375407670711
934 475 -0.0027892340203901521
934 476 -0.0075382413800298247
934 477 -0.012582339869564035
934 559 0.0033530990489935883
934 560 -0.0075571529841903604
934 561 -0.0051707646705019834
934 637 -0.002625031554174657
934 638 0.0084061799972231527
934 639 -0.01108252731102977
934 664 -0.0065335727412864199
934 665 -0.0064242169305081913
934 666 0.015117532084136206
934 919 -0.019598792920380588
934 920 -0.020759382651244152
934 921 0.0062317143302979437
934 922 -0.049095190698688909
934 923 -0.0057384321812611319
934 924 -0.0058593454565758372
934 931 -0.017025512290611975
934 932 0.019272895588611755
934 933 0.0063367108249107887
934 934 0.17383591942796792
935 397 0.0082533222404266911
935 398 -0.015282915623100487
935 399 0.017044886070330501
935 457 0.0054848239594473078
935 458 -0.012352604094072111
935 459 -0.011089989872751475
935 475 -0.0075382413800298247
935 476 0.0051997323227375904
935 477 -0.0074010488729366651
935 559 -0.0075571529841903604
935 560 -0.009673231463991832
935 561 -0.015973427058467549
935 637 0.0084061799972231527
935 638 -0.0057959134125388796
935 639 0.011956098769763931
935 664 -0.006424216930508193
935 665 0.0051230662901196114
935 666 0.0062223088825882778
935 919 -0.020759382651244149
935 920 -0.033991212684334082
935 921 0.0041949974752443688
935 922 -0.0057384321812611327
935 923 -0.0038631823228500858
935 924 -0.0028376746457182776
935 931 0.019272895588611758
935 932 -0.033122517946540232
935 933 -0.004963070345015131
935 934 0.004364187581044749
935 935 0.17526342633341058
936 397 -0.0048075321027286804
936 398 0.017044886070330501
936 399 -0.017819387182899476
936 457 0.016042375407670707
936 458 -0.011089989872751475
936 459 -0.029223099004881362
936 475 -0.012582339869564035
936 476 -0.0074010488729366643
936 477 -0.014237442803194358
936 559 -0.0051707646705019825
936 560 -0.015973427058467545
936 561 -0.014654475850779261
936 637 -0.01108252731102977
936 638 0.011956098769763931
936 639 -0.019619313822738293
936 664 0.015117532084136206
936 665 0.0062223088825882787
936 666 -0.014981989900505931
936 919 0.0062317143302979446
936 920 0.0041949974752443688
936 921 -0.0081477856191744889
936 922 -0.0058593454565758363
936 923 -0.0028376746457182771
936 924 -0.0058629436203896388
936 931 0.0063367108249107879
936 932 -0.004963070345015131
936 933 -0.0076595586818816635
936 934 0.00014737528587049908
936 935 0.00031044870442965443
936 936 0.14313246614252795
937 316 -0.00012846670908891653
937 317 -0.0036056336835605489
937 318 -0.011607845966471571
937 319 -0.0097920930519360717
937 320 0.0058960233277943379
937 321 0.012381300667331735
937 457 -0.012308839669977461
937 458 0.0073474584063110112
937 459 -0.010150318223060943
937 460 0.0015455348509938178
937 461 -0.0092594550661018894
937 462 0.010235610404721963
937 517 -0.0016877009370469427
937 518 0.0055733328492284014
937 519 -0.0089823533673259338
937 520 0.00090806387567356
937 521 -0.0052837785331300751
937 522 0.01164053813712077
937 637 -0.0066341227882969383
937 638 0.0014949765316564214
937 639 0.00078914300234464918
937 922 -0.0098745937286087628
937 923 -0.016064249341078553
937 924 -0.0010955353561705366
937 925 -0.066933720137662994
937 926 -0.0055939458070651763
937 927 -0.011558201395237852
937 928 -0.0082694103475034701
937 929 0.012562491451984296
937 930 0.003101346489009585
937 934 0.00055345538320953811
937 935 0.014912217740149329
937 936 -1.3393271138803899e-05
937 937 0.19215396851067751
938 316 -0.0036056336835605506
938 317 0.011105465338340649
938 318 -0.0074783103105121977
938 319 0.0058960233277943388
938 320 -0.0084417738615009293
938 321 -0.012482179410550477
938 457 0.007347458406311012
938 458 -0.021168970614466088
938 459 0.018985413149937989
938 460 -0.0092594550661018911
938 461 0.01030404233620574
938 462 0.0054494631891723322
938 517 0.0055733328492284023
938 518 0.0022431170188691799
938 519 0.0063460409396095055
938 520 -0.0052837785331300768
938 521 0.010647993141760084
938 522 0.0076700937174376867
938 637 0.0014949765316564227
938 638 -0.015894216323835163
938 639 -0.01825622477976074
938 922 -0.016064249341078553
938 923 -0.034966105888182664
938 924 -0.0066062485983675451
938 925 -0.0055939458070651763
938 926 -0.016825900900044249
938 927 -0.00028691520968037593
938 928 0.012562491451984296
938 929 -0.020385952570785331
938 930 -0.0068292647124097387
938 934 0.014912217740149329
938 935 -0.016816426590773662
938 936 0.00026989999484612734
938 937 0.0055933891343037103
938 938 0.19234911194884333
939 316 -0.011607845966471571
939 317 -0.0074783103105121995
939 318 -0.0070291625280184556
939 319 0.012381300667331735
939 320 -0.012482179410550475
939 321 -0.024697343822469797
939 457 -0.01015031822306094
939 458 0.018985413149937992
939 459 -0.032826951131199884
939 460 0.010235610404721965
939 461 0.0054494631891723322
939 462 0.0062443551219256554
939 517 -0.0089823533673259338
939 518 0.0063460409396095072
939 519 -0.019366253553585174
939 520 0.011640538137120772
939 521 0.0076700937174376885
939 522 -0.0062307149663480502
939 637 0.00078914300234464972
939 638 -0.01825622477976074
939 639 -0.028980553392272259
939 922 -0.0010955353561705374
939 923 -0.0066062485983675459
939 924 -0.0042628038615853793
939 925 -0.01155820139523785
939 926 -0.00028691520968037614
939 927 -0.019226311505817498
939 928 0.003101346489009585
939 929 -0.0068292647124097387
939 930 -0.0083730182379199072
939 934 -1.3393271138804333e-05
939 935 0.0002698999948461269
939 936 0.0067557487848104057
939 937 0.0095603169855280317
939 938 0.0080590311570660593
939 939 0.16146704547880272
940 181 -0.0019649923230571492
940 182 -0.0089124398032460091
940 183 0.0075452259066048927
940 184 -0.0087979768061182649
940 185 0.0065816162522572864
940 186 -0.0066435723352838826
940 517 0.00056959801884619667
940 518 -0.0076817301010016926
940 519 -0.010379691770657168
940 520 -0.024109835556925131
940 521 0.0089713645576910504
940 522 0.013275751537571642
940 760 -0.0063748808430027911
940 761 0.012696578370352138
940 762 0.0053882571438176206
940 799 -0.012574164536082826
940 800 -0.010149337237886604
940 801 -0.0043332870251977969
940 928 -0.0040555692382510328
940 929 -0.0012288296362849927
940 930 0.011231217552680348
940 937 -0.015453114215991916
940 938 -0.01353836862019283
940 939 0.0023520308353316096
940 940 0.13879679666187184
941 181 -0.0089124398032460091
941 182 0.0071531745064102618
941 183 0.0062653839975413701
941 184 0.0065816162522572856
941 185 -0.024197899156252575
941 186 0.017751051720423405
941 517 -0.0076817301010016926
941 518 -0.00042827439149962804
941 519 -0.0084055007799016673
941 520 0.0089713645576910521
941 521 -0.031903064123995732
941 522 -0.018414267068341886
941 760 0.012696578370352136
941 761 -0.020661851468946134
941 762 -0.0089019233118384916
941 799 -0.010149337237886604
941 800 -0.047801252183597084
941 801 -0.017083723991270946
941 928 -0.0012288296362849929
941 929 0.0083307910522282449
941 930 0.00446920002031589
941 937 -0.013538368620192833
941 938 -0.046933440756588056
941 939 0.0066789665128098568
941 940 0.0028116139553842319
941 941 0.17327463249079511
942 181 0.0075452259066048927
942 182 0.0062653839975413692
942 183 0.0034358901230383369
942 184 -0.0066435723352838826
942 185 0.017751051720423409
942 186 -0.024733673521808611
942 517 -0.01037969177065717
942 518 -0.0084055007799016673
942 519 -0.0075265166282973721
942 520 0.013275751537571642
942 521 -0.018414267068341882
942 522 -0.041836998099319136
942 760 0.0053882571438176197
942 761 -0.0089019233118384916
942 762 -0.0040657237286255759
942 799 -0.004333287025197796
942 800 -0.017083723991270946
942 801 -0.01773360170047994
942 928 0.011231217552680348
942 929 0.0044692000203158892
942 930 -0.00046559652568491062
942 937 0.0023520308353316101
942 938 0.0066789665128098551
942 939 -0.009860189480109624
942 940 -9.8045200881973112e-05
942 941 0.013966228435850415
942 942 0.16748377256815422
943 313 -0.0089638535266638539
943 314 -0.0074413599522780583
943 315 -0.011384302409250082
943 316 -0.0080942909945339071
943 317 0.0039341903781313428
943 318 0.0093830655165136768
943 448 0.003794947711812856
943 449 0.0074123954605425247
943 450 -0.010563781267157389
943 457 0.0031418782694265907
943 458 -0.0065700199712629892
943 459 0.011439707087624918
943 475 -0.010999363460425505
943 476 2.7341753559026547e-05
943 477 0.00017783561642960527
943 520 -0.0087496874931813247
943 521 0.0057016658715623577
943 522 -0.009720438516483923
943 523 -0.01097654407415693
943 524 -0.0095547312890883578
943 525 0.011979423422612163
943 622 0.0034838571009794851
943 623 0.0093314714327317923
943 624 0.010789112128871355
943 637 0.0019227287156020375
943 638 -0.0083640068277160209
943 639 -0.011397549362601211
943 664 -0.013400332551007532
943 665 -3.6883371695762418e-05
943 666 -0.00023995181951998569
943 934 -0.017390999564001631
943 935 -0.017892123767755976
943 936 -0.00043216227783159235
943 937 -0.059156345672802618
943 938 0.0010912331869436321
943 939 -0.00050976020521892253
943 940 0.0042899239532586207
943 941 0.011487776757390589
943 942 -0.0031280719770163789
943 943 0.18885991053997078
944 313 -0.0074413599522780592
944 314 -0.010497759926021907
944 315 -0.016749709722877249
944 316 0.0039341903781313445
944 317 -0.011222656286929578
944 318 -0.012366964192790705
944 448 0.0074123954605425256
944 449 0.011419098814900303
944 450 0.0080580070489581091
944 457 -0.0065700199712629909
944 458 0.011782815826100544
944 459 0.0056244935717220407
944 475 2.7341753559027848e-05
944 476 -0.018685844545218683
944 477 0.0186970490982038
944 520 0.0057016658715623577
944 521 -0.013384623900093625
944 522 0.014272648064815603
944 523 -0.0095547312890883578
944 524 -0.014677394565164873
944 525 0.018137214061530384
944 622 0.0093314714327317923
944 623 0.011594373015466924
944 624 -0.0080577599026151851
944 637 -0.0083640068277160227
944 638 0.011585930102939434
944 639 -0.0053091023576869968
944 664 -3.6883371695761551e-05
944 665 -0.024534752515309552
944 666 -0.019483148701312125
944 934 -0.017892123767755976
944 935 -0.052210529313996716
944 936 -0.00052452694725885771
944 937 0.0010912331869436299
944 938 -0.012521753376463052
944 939 6.9330553676400343e-05
944 940 0.011487776757390589
944 941 -0.0026476669211941035
944 942 0.0042428187791856802
944 943 0.0057159002032422281
944 944 0.24998003109905229
945 313 -0.011384302409250082
945 314 -0.016749709722877249
945 315 -0.028178168361540901
945 316 0.0093830655165136785
945 317 -0.012366964192790701
945 318 -0.026529694247704235
945 448 -0.010563781267157389
945 449 0.0080580070489581091
945 450 0.00063336642193641073
945 457 0.011439707087624916
945 458 0.0056244935717220407
945 459 0.0062270326964830452
945 475 0.00017783561642960451
945 476 0.0186970490982038
945 477 -0.035051213503788682
945 520 -0.009720438516483923
945 521 0.014272648064815607
945 522 -0.023277873556220068
945 523 0.011979423422612167
945 524 0.018137214061530384
945 525 -0.026393926796906327
945 622 0.010789112128871355
945 623 -0.0080577599026151851
945 624 0.00039379031007902602
945 637 -0.011397549362601209
945 638 -0.0053091023576869959
945 639 0.0050240840757700585
945 664 -0.00023995181951998591
945 665 -0.019483148701312129
945 666 -0.035948964430709635
945 934 -0.0004321622778315923
945 935 -0.00052452694725885804
945 936 -0.012868650686860921
945 937 -0.00050976020521892209
945 938 6.933055367639991e-05
945 939 -0.01417714580853963
945 940 -0.0031280719770163789
945 941 0.004242818779185681
945 942 0.0047056073479728473
945 943 1.8791242300380718e-05
945 944 0.00072108132319468861
945 945 0.19574981761192961
946 397 0.0036167278213100505
946 398 -0.010524197660320108
946 399 0.0086017217682966551
946 400 -0.015077985030485462
946 401 -0.00092193612614882071
946 402 0.0028770503698570433
946 403 0.0047988567059618105
946 404 0.0080498246286417902
946 405 -0.00969114425976564
946 448 -0.015028545563611079
946 449 -0.0080116761827940391
946 450 -0.013254203934740784
946 475 -0.006651677914215167
946 476 0.0074828248799265196
946 477 0.012349561557745647
946 553 0.0056178065276986993
946 554 0.0097441055212184255
946 555 0.0096675373723400012
946 556 0.002527609296972929
946 557 -0.0018939457914357763
946 558 -0.0047892757012568295
946 622 -0.014688038668122563
946 623 -0.0096451287801364478
946 624 0.013540702453149303
946 664 -0.0061306006544296987
946 665 0.0066058758562969732
946 666 -0.015012951645361977
946 931 -0.028185998941069622
946 932 -0.022302891150156972
946 933 -0.0069023454359096615
946 934 -0.045415621105272953
946 935 0.0052159227880866493
946 936 -0.0039276429735154491
946 943 -0.013046388829841958
946 944 0.014002023516353827
946 945 0.00021964055166644224
946 946 0.17996172957172532
947 397 -0.010524197660320108
947 398 0.011663068376598772
947 399 0.0052215808959016037
947 400 -0.00092193612614882049
947 401 -0.02959997126942723
947 402 0.018258935809758434
947 403 0.008049824628641792
947 404 0.01120635147447192
947 405 0.008588914120549216
947 448 -0.0080116761827940391
947 449 -0.022844839520299001
947 450 -0.020784439132770796
947 475 0.0074828248799265178
947 476 -0.0064562563755632477
947 477 -0.012464995950614711
947 553 0.0097441055212184255
947 554 0.012859580070135219
947 555 -0.0085606732501815573
947 556 -0.0018939457914357747
947 557 -0.0084285829490348286
947 558 -0.014803582040437023
947 622 -0.0096451287801364478
947 623 -0.021799027764709794
947 624 0.020210902490547744
947 664 0.0066058758562969732
947 665 0.0055105086027271094
947 666 0.0060784534669160112
947 931 -0.022302891150156965
947 932 -0.044092145325228774
947 933 -0.01004301159370688
947 934 0.0052159227880866493
947 935 -0.0024776914940696955
947 936 0.0027910978449450907
947 943 0.01400202351635383
947 944 -0.060212123323917753
947 945 -0.00034501845998335452
947 946 0.0092742391149515952
947 947 0.23363277582995082
948 397 0.0086017217682966551
948 398 0.0052215808959016029
948 399 0.0077398715046189323
948 400 0.0028770503698570451
948 401 0.018258935809758434
948 402 -0.032691337463815126
948 403 -0.0096911442597656383
948 404 0.008588914120549216
948 405 0.0016442150260802012
948 448 -0.013254203934740784
948 449 -0.020784439132770796
948 450 -0.037636970681887635
948 475 0.012349561557745647
948 476 -0.012464995950614711
948 477 -0.022478692682908565
948 553 0.0096675373723399995
948 554 -0.0085606732501815573
948 555 0.001928287790315768
948 556 -0.0047892757012568286
948 557 -0.014803582040437024
948 558 -0.018814055520683159
948 622 0.013540702453149301
948 623 0.020210902490547744
948 624 -0.033045509686601304
948 664 -0.015012951645361977
948 665 0.0060784534669160112
948 666 -0.014645738597746046
948 931 -0.0069023454359096615
948 932 -0.010043011593706878
948 933 -0.015986903163957112
948 934 -0.00392764297351545
948 935 0.0027910978449450907
948 936 -0.0048135677540329779
948 943 0.00021964055166644202
948 944 -0.00034501845998335424
948 945 -0.0094002098164926596
948 946 0.0066685573036845336
948 947 0.0059477839789097327
948 948 0.18148162095975892
949 103 0.0096776287897463158
949 104 -1.3940537471025125e-05
949 105 -6.7583505197033871e-05
949 265 0.014907219452723773
949 266 7.4816065536726121e-05
949 267 7.5129614401213017e-05
949 400 -0.021794865774400232
949 401 0.0043138548874197477
949 402 0.018827132904435873
949 403 -0.018055025348633753
949 404 -0.0036358391936354155
949 405 -0.016624036781018387
949 553 -0.012640329284252757
949 554 -0.0058701170818288104
949 555 0.01539661671853102
949 556 -0.0057381186542641814
949 557 0.0051154638500536479
949 558 -0.012664130823018996
949 679 -0.055618773956098058
949 680 0.03125212417163243
949 681 0.00068736399742368951
949 706 -0.043911111146426311
949 707 -0.02813271797690186
949 708 0.00044119527803258309
949 931 -0.026392350296328713
949 932 0.0025518028312213168
949 933 -0.002928856934500651
949 946 -0.0071280101554996329
949 947 0.010082200645820532
949 948 -0.0005924688864763284
949 949 0.1892014291126802
950 103 -1.3940537471025631e-05
950 104 -0.0080399023459061855
950 105 0.013163417500990818
950 265 7.4816065536725904e-05
950 266 -0.0019926716327586542
950 267 -0.012561926414295547
950 400 0.0043138548874197477
950 401 -0.00085045617148864
950 402 -0.0037984861540529928
950 403 -0.0036358391936354151
950 404 -0.012757184388689946
950 405 -0.0087025969966710755
950 553 -0.0058701170818288113
950 554 -0.0088750967138094446
950 555 0.0093260101836605876
950 556 0.0051154638500536479
950 557 0.001141878385492864
950 558 0.0037284300019577296
950 679 0.03125212417163243
950 680 -0.048607301952410614
950 681 -0.00037101422389625952
950 706 -0.028132717976901866
950 707 -0.048179570386455678
950 708 -0.00053905019084112471
950 931 0.0025518028312213172
950 932 0.0075803451547511533
950 933 0.00037049487835579724
950 946 0.010082200645820532
950 947 -0.058089716036072617
950 948 -0.00058316032681416633
950 949 -0.0032043592090144801
950 950 0.18871050238193535
951 103 -6.7583505197033194e-05
951 104 0.013163417500990822
951 105 -0.0093648515488439776
951 265 7.5129614401213559e-05
951 266 -0.012561926414295547
951 267 -0.0056808927447539771
951 400 0.018827132904435873
951 401 -0.0037984861540529937
951 402 -0.022289848696428815
951 403 -0.016624036781018387
951 404 -0.0087025969966710755
951 405 -0.026989532945038617
951 553 0.01539661671853102
951 554 0.0093260101836605894
951 555 -0.021576586322617997
951 556 -0.012664130823018998
951 557 0.00372843000195773
951 558 -0.018190328643665585
951 679 0.00068736399742368951
951 680 -0.0003710142238962593
951 681 -0.019650822207591127
951 706 0.00044119527803258244
951 707 -0.00053905019084112492
951 708 -0.019254062764042342
951 931 -0.002928856934500651
951 932 0.00037049487835579637
951 933 0.0044061914165548083
951 946 -0.00059246888647632797
951 947 -0.00058316032681416524
951 948 -0.0083808342507219833
951 949 -0.0029396414762900185
951 950 0.00018211400447350158
951 951 0.14294947901937724
952 307 0.0039754709232069016
952 308 -0.0072796905494128625
952 309 -0.0112577188642743
952 310 -0.011798088682131825
952 311 -8.1541783861834027e-05
952 312 -0.00019562483776082028
952 313 0.0041239226470865861
952 314 0.0080401357209743396
952 315 0.010113761931107636
952 445 -0.006475909365517259
952 446 0.0077570203003258439
952 447 -0.013332196230828586
952 448 -0.016450937356872475
952 449 -0.0083384199142977691
952 450 0.015054768686199172
952 523 0.0056880124388158431
952 524 0.0090561884192958322
952 525 -0.0099575900645235728
952 526 -0.011250154434918147
952 527 -9.1054125611908935e-05
952 528 0.00016389857301982559
952 529 0.0049285926576251382
952 530 -0.0087464599431939585
952 531 0.010767868203542582
952 622 -0.013180868279536077
952 623 -0.008867801540047307
952 624 -0.01430823746187186
952 649 -0.0060360786150099096
952 650 0.0085437861096530794
952 651 0.013647708447333146
952 943 -0.034164392345921391
952 944 0.0011475653977135636
952 945 3.1930603541423437e-05
952 946 -0.011120581800911838
952 947 -0.019002796410273724
952 948 -6.6094477089106442e-05
952 952 0.19436148587646004
953 307 -0.0072796905494128625
953 308 0.011142703070395079
953 309 -0.0053122618093213109
953 310 -8.1541783861834027e-05
953 311 -0.018774564321007048
953 312 -0.01868096571781775
953 313 0.0080401357209743396
953 314 0.011578380442472794
953 315 -0.0090405235697213152
953 445 0.0077570203003258439
953 446 -0.0064522332602613827
953 447 0.011873597925722543
953 448 -0.0083384199142977691
953 449 -0.022340329918116752
953 450 0.021195429997258791
953 523 0.0090561884192958322
953 524 0.012332214807167809
953 525 0.0091596507518487812
953 526 -9.1054125611908258e-05
953 527 -0.019980607423396354
953 528 0.018851541261919565
953 529 -0.0087464599431939585
953 530 0.013023386498312165
953 531 0.005436853905362268
953 622 -0.0088678015400473053
953 623 -0.020847108470756607
953 624 -0.021321203663794523
953 649 0.0085437861096530811
953 650 -0.006153530951355627
953 651 -0.012092690408281651
953 943 0.0011475653977135627
953 944 0.0043081561385918607
953 945 -5.9504997683782748e-05
953 946 -0.019002796410273724
953 947 -0.024004638394548097
953 948 0.00044238828204920359
953 952 0.00066928213432863957
953 953 0.23228185108536598
954 307 -0.011257718864274303
954 308 -0.0053122618093213118
954 309 0.007975324547025946
954 310 -0.00019562483776082028
954 311 -0.01868096571781775
954 312 -0.034482619277213938
954 313 0.010113761931107634
954 314 -0.0090405235697213135
954 315 0.0036276073812081021
954 445 -0.01333219623082859
954 446 0.011873597925722543
954 447 -0.02389240574678362
954 448 0.01505476868619917
954 449 0.021195429997258795
954 450 -0.041246781994248347
954 523 -0.0099575900645235693
954 524 0.0091596507518487812
954 525 0.0043781962017218163
954 526 0.00016389857301982516
954 527 0.018851541261919562
954 528 -0.029657537048611696
954 529 0.010767868203542582
954 530 0.005436853905362268
954 531 0.0079359394348255483
954 622 -0.014308237461871862
954 623 -0.021321203663794523
954 624 -0.035236180698636613
954 649 0.013647708447333144
954 650 -0.012092690408281651
954 651 -0.021871719801146078
954 943 3.1930603541423762e-05
954 944 -5.9504997683783832e-05
954 945 0.00026480614234782046
954 946 -6.6094477089106117e-05
954 947 0.00044238828204920598
954 948 0.0054608436737128858
954 952 -0.0014060482991558264
954 953 0.00039675644293675586
954 954 0.19999144859622639
955 76 0.0015119369281200252
955 77 0.002548807920431188
955 78 0.0024687843717374563
955 178 0.014902257709807075
955 179 -0.00011317633066257266
955 180 9.9702272560675515e-05
955 310 -0.013727855582995019
955 311 0.0040342500725479066
955 312 -0.016700533999412674
955 313 -0.0080828942032565281
955 314 -0.0078848999547403327
955 315 0.013684395091923898
955 523 -0.016576127471805736
955 524 -0.0050578147662121336
955 525 -0.016285113274222756
955 526 -0.010401625719471504
955 527 0.005821954964319094
955 528 0.016247087252323888
955 763 -0.022700857878564105
955 764 0.020870696999489274
955 765 -0.0047740802428922679
955 766 -0.039453197894464602
955 767 -0.02570524674642884
955 768 0.00038444251889796705
955 943 -0.0027917716822334088
955 944 -0.016991672254189273
955 945 -0.00027353416833218584
955 952 -0.011810480838492534
955 953 0.013749222975330275
955 954 3.7271554834573226e-05
955 955 0.18295039888358677
956 76 0.0025488079204311876
956 77 -0.012629333622132428
956 78 -0.015970724854933296
956 178 -0.00011317633066257243
956 179 -0.0021560112764619109
956 180 0.012567175719712036
956 310 0.0040342500725479066
956 311 -0.0017791501149314291
956 312 0.0030035724047482002
956 313 -0.007884899954740331
956 314 -0.0086884599168762372
956 315 0.012487314171874358
956 523 -0.0050578147662121327
956 524 -0.01117748151053112
956 525 -0.0090843986721484242
956 526 0.0058219549643190949
956 527 0.0029245684114570596
956 528 -0.0042731163034031034
956 763 0.020870696999489277
956 764 -0.039384284591369702
956 765 0.004259558070134636
956 766 -0.02570524674642884
956 767 -0.049372416476018824
956 768 -0.00039781939612826885
956 943 -0.016991672254189273
956 944 -0.0076812373001659898
956 945 -0.00051601623728201457
956 952 0.013749222975330275
956 953 -0.053953628537496259
956 954 -0.00014942963174495531
956 955 -0.0040346088100439012
956 956 0.18537237186633687
957 76 0.0024687843717374558
957 77 -0.015970724854933296
957 78 -0.014655651412830031
957 178 9.9702272560676382e-05
957 179 0.012567175719712036
957 180 -0.0056832227978767646
957 310 -0.016700533999412674
957 311 0.003003572404748201
957 312 -0.023340415589993405
957 313 0.013684395091923898
957 314 0.012487314171874354
957 315 -0.027461284024452311
957 523 -0.016285113274222756
957 524 -0.0090843986721484242
957 525 -0.028236238158821775
957 526 0.016247087252323891
957 527 -0.0042731163034031034
957 528 -0.017975924185016527
957 763 -0.0047740802428922679
957 764 0.0042595580701346352
957 765 -0.010897690928167326
957 766 0.00038444251889796765
957 767 -0.0003978193961282682
957 768 -0.021143747526236427
957 943 -0.0002735341683321854
957 944 -0.00051601623728201543
957 945 0.0088710005293468012
957 952 3.7271554834573335e-05
957 953 -0.00014942963174495493
957 954 -0.0088598652458065849
957 955 0.00073703777960665729
957 956 0.00065415306779722702
957 957 0.15176384955524261
958 79 0.010370860064236466
958 80 -2.6524019111950533e-05
958 81 -9.6444314391677406e-05
958 175 0.014914218254977577
958 176 -2.0770352483646847e-05
958 177 -2.2040628019777603e-05
958 307 -0.018136219085875618
958 308 0.0040548064658812253
958 309 -0.016819781001089579
958 310 -0.013883237477149998
958 311 -0.0039163543383891122
958 312 0.01678001586384294
958 526 -0.010708536230466074
958 527 -0.0056308163887543762
958 528 -0.016383905677668491
958 529 -0.015348182382876644
958 530 0.0055290941090520174
958 531 0.016297193000248129
958 766 -0.038748044500897354
958 767 0.025624147182526664
958 768 -0.00036860989440228964
958 781 -0.039261580521382455
958 782 -0.025679864618541812
958 783 0.00027183446377857857
958 952 -0.012058217851648947
958 953 -0.016136281874527668
958 954 -7.0528883335858709e-05
958 955 -0.030083627827011971
958 956 -0.00015438596699096879
958 957 9.7870968561747525e-05
958 958 0.18570775290893368
959 79 -2.6524019111949625e-05
959 80 -0.0074439350805359803
959 81 -0.013180027023873282
959 175 -2.0770352483646613e-05
959 176 -0.0022339027440637527
959 177 0.0126500375077718
959 307 0.0040548064658812253
959 308 -0.013560470239921751
959 309 0.0084542477585913701
959 310 -0.0039163543383891122
959 311 -0.0020564632690908968
959 312 0.0031668258871879141
959 526 -0.0056308163887543762
959 527 0.0026078500799170453
959 528 -0.0043649252643340004
959 529 0.0055290941090520174
959 530 -0.010268803661064465
959 531 -0.0094901547677750837
959 766 0.025624147182526664
959 767 -0.049257414811294267
959 768 -0.00044258895550855276
959 781 -0.025679864618541808
959 782 -0.049453745217521237
959 783 -0.00051694176826085634
959 952 -0.016136281874527668
959 953 -0.04405715638383198
959 954 -3.9936651418040134e-05
959 955 -0.00015438596699096836
959 956 0.0068353961922490757
959 957 0.00086787376333359459
959 958 0.00029147565148113469
959 959 0.18043767257629509
960 79 -9.6444314391676647e-05
960 80 -0.013180027023873286
960 81 -0.0093800315159953199
960 175 -2.2040628019777627e-05
960 176 0.0126500375077718
960 177 -0.0058442742657018945
960 307 -0.016819781001089579
960 308 0.0084542477585913701
960 309 -0.031295021214035199
960 310 0.01678001586384294
960 311 0.0031668258871879133
960 312 -0.023229892334284286
960 526 -0.016383905677668495
960 527 -0.0043649252643340004
960 528 -0.017737191563882114
960 529 0.016297193000248129
960 530 -0.0094901547677750837
960 531 -0.02590735075759476
960 766 -0.00036860989440229088
960 767 -0.00044258895550855232
960 768 -0.020818290477605153
960 781 0.00027183446377857922
960 782 -0.0005169417682608559
960 783 -0.021153884085384621
960 952 -7.0528883335858276e-05
960 953 -3.9936651418040134e-05
960 954 -0.010063795640355347
960 955 9.7870968561748067e-05
960 956 0.00086787376333359438
960 957 0.0046430765866329275
960 958 7.9017003022707782e-05
960 959 0.0022577631449173649
960 960 0.1498204560526851
961 304 0.0064087814248869135
961 305 -0.0088138508362453679
961 306 -0.0094465643140781621
961 307 -0.011721870648632718
961 308 0.0073062211188476209
961 309 0.011344107406257142
961 445 -0.0015133431527026564
961 446 -0.0076430420045480478
961 447 0.013109118950512144
961 463 -0.017513618745402922
961 464 0.0090918828476033633
961 465 -0.015586490554225209
961 529 -0.011606767791515678
961 530 0.0089372906506601946
961 531 -0.011014204459392066
961 532 0.0074951167060655615
961 533 -0.0097306035086457254
961 534 0.0093220598602032339
961 649 -0.0017579114436928919
961 650 -0.0086936827377960407
961 651 -0.013706750579866648
961 652 -0.015096503946136019
961 653 0.0095589592688020975
961 654 0.014907655448140078
961 952 -0.067893798176735867
961 953 0.0075960080068993453
961 954 0.00046467283924952443
961 958 -0.0029315432086945447
961 959 0.016102119664979871
961 960 0.00021143937435807569
961 961 0.18754938419184175
962 304 -0.0088138508362453679
962 305 0.01274123727236802
962 306 -0.0075802446934939245
962 307 0.00730622111884762
962 308 -0.018288590973061149
962 309 -0.018614967772078952
962 445 -0.0076430420045480478
962 446 0.0046633382708002741
962 447 0.0070628196592085295
962 463 0.0090918828476033615
962 464 -0.022279765087377522
962 465 0.019298467951978537
962 529 0.0089372906506601946
962 530 -0.020302593488735914
962 531 0.018866499806297472
962 532 -0.0097306035086457236
962 533 0.012924230946293462
962 534 0.0079070322176550845
962 649 -0.0086936827377960407
962 650 0.0065313995389591544
962 651 -0.0070096859350271459
962 652 0.0095589592688020975
962 653 -0.021307238585050656
962 654 -0.019632497712601529
962 952 0.0075960080068993453
962 953 -0.01384675437817522
962 954 8.1715952672205608e-05
962 958 0.016102119664979871
962 959 -0.018511543203817694
962 960 -0.0002664923697093184
962 961 -0.018262393172202934
962 962 0.20500121681129224
963 304 -0.0094465643140781621
963 305 -0.0075802446934939227
963 306 0.0037993090793843405
963 307 0.011344107406257143
963 308 -0.018614967772078952
963 309 -0.034018948696965215
963 445 0.013109118950512142
963 446 0.0070628196592085295
963 447 -0.015609038053355865
963 463 -0.015586490554225211
963 464 0.019298467951978541
963 465 -0.038666300283925904
963 529 -0.011014204459392066
963 530 0.018866499806297475
963 531 -0.029965586823811952
963 532 0.0093220598602032339
963 533 0.0079070322176550828
963 534 0.0044394393037817566
963 649 -0.013706750579866648
963 650 -0.007009685935027145
963 651 -0.013993709763939552
963 652 0.014907655448140076
963 653 -0.019632497712601532
963 654 -0.034425282236847751
963 952 0.00046467283924952465
963 953 8.1715952672205879e-05
963 954 -0.016235502978807773
963 958 0.00021143937435807525
963 959 -0.0002664923697093184
963 960 0.0061960008636662133
963 961 0.00081026328598514732
963 962 0.00045944086997866439
963 963 0.18001205371852819
964 100 0.022224464521517402
964 101 -0.00017235909033562626
964 102 -6.2422016476448779e-05
964 403 -0.027334246566803968
964 404 -0.0050393436292274461
964 405 0.02138713334515991
964 406 -0.029649558101701119
964 407 0.0063967445622775789
964 408 -0.022766302312074209
964 445 -0.013080335042254865
964 446 1.0493980997208972e-05
964 447 9.3399790927382438e-06
964 448 0.0059361967692800471
964 449 0.0084093659181241863
964 450 0.0094157973362065644
964 463 0.0059496375800963397
964 464 -0.0087091490598534219
964 465 -0.0091487330300884361
964 550 -0.011525489505845973
964 551 0.0065297426566316595
964 552 0.013945804958524868
964 553 -0.01435533246404223
964 554 -0.0095413145428171683
964 555 -0.017439222996257928
964 622 0.0065273488101772565
964 623 0.0097394290244799016
964 624 -0.0094561434272440164
964 649 -0.01062797641920602
964 650 3.018475523162885e-05
964 651 -0.00013106119194643517
964 652 0.0069285258800378287
964 653 -0.009764030773750626
964 654 0.0091757278256339257
964 679 -0.003850024564389703
964 680 -0.013741764856192282
964 681 -0.0049457079315506991
964 703 -0.0035637939486690058
964 704 0.012371701173799106
964 705 0.0015857278416918892
964 946 -0.034049281260208869
964 947 0.00184555514996957
964 948 0.00031135593737615459
964 949 -0.022507692739246694
964 950 -0.012533288452832803
964 951 0.00038927989367703881
964 952 -0.010837976795498205
964 953 0.011984837076706105
964 954 0.00031215828001205357
964 961 -0.010383712173640465
964 962 -0.011195954999801413
964 963 -0.00023214306035922172
964 964 0.21068866959297644
965 100 -0.00017235909033562605
965 101 0.00080938457975329584
965 102 0.011682991652529218
965 403 -0.0050393436292274461
965 404 -0.019642266242487046
965 405 0.012640764827064449
965 406 0.0063967445622775789
965 407 -0.020568998795427486
965 408 0.013550345634966885
965 445 1.0493980997207644e-05
965 446 -0.019325135931019442
965 447 -0.018881529503502276
965 448 0.008409365918124188
965 449 0.011500495210008422
965 450 -0.0088363115675357817
965 463 -0.0087091490598534202
965 464 0.011117140631263234
965 465 -0.0089515565087901153
965 550 0.0065297426566316603
965 551 -0.0063423584976214876
965 552 -0.012915603607141347
965 553 -0.0095413145428171683
965 554 -0.014639344166517626
965 555 -0.015954446533906569
965 622 0.0097394290244799033
965 623 0.013672998589598613
965 624 0.0088554702658897727
965 649 3.0184755231629318e-05
965 650 -0.01874735363457589
965 651 0.019151631198385352
965 652 -0.0097640307737506243
965 653 0.013718583973308808
965 654 0.0090540397376195243
965 679 -0.01374176485619228
965 680 -0.022090536374326789
965 681 -0.0032717352997607453
965 703 0.012371701173799104
965 704 -0.014339797493917218
965 705 -0.00016281466035294968
965 946 0.0018455551499695698
965 947 0.0031327080989871805
965 948 4.4823864931453974e-05
965 949 -0.012533288452832806
965 950 -0.010040826294587581
965 951 -0.0002142322628672763
965 952 0.011984837076706105
965 953 -0.054256140003360404
965 954 -0.00074141806998678154
965 961 -0.011195954999801416
965 962 -0.054700928213110185
965 963 -0.00075061682893054265
965 964 -0.0028699040891159845
965 965 0.23913851691600571
966 100 -6.2422016476448793e-05
966 101 0.011682991652529218
966 102 0.0041184221984541984
966 403 0.02138713334515991
966 404 0.012640764827064449
966 405 -0.046783654236136091
966 406 -0.022766302312074205
966 407 0.013550345634966885
966 408 -0.045879656152243938
966 445 9.3399790927393584e-06
966 446 -0.018881529503502276
966 447 -0.034178505260405084
966 448 0.0094157973362065661
966 449 -0.0088363115675357835
966 450 0.0030582773716993079
966 463 -0.0091487330300884379
966 464 -0.0089515565087901153
966 465 0.0024113044367806034
966 550 0.01394580495852487
966 551 -0.012915603607141345
966 552 -0.029390881965647285
966 553 -0.017439222996257924
966 554 -0.015954446533906569
966 555 -0.036839145359781444
966 622 -0.0094561434272440164
966 623 0.0088554702658897744
966 624 0.0046551411736783024
966 649 -0.00013106119194643674
966 650 0.019151631198385352
966 651 -0.028654518039011284
966 652 0.0091757278256339257
966 653 0.0090540397376195261
966 654 0.003986948009143591
966 679 -0.0049457079315507
966 680 -0.0032717352997607453
966 681 0.00074726815713258314
966 703 0.001585727841691889
966 704 -0.00016281466035294925
966 705 0.0094784536367347062
966 946 0.00031135593737615535
966 947 4.4823864931453974e-05
966 948 -0.00036101933564019442
966 949 0.00038927989367703946
966 950 -0.00021423226286727565
966 951 0.0040220896877723612
966 952 0.00031215828001205292
966 953 -0.00074141806998678252
966 954 -0.0080877575454585456
966 961 -0.00023214306035922129
966 962 -0.00075061682893054298
966 963 -0.0076287729103060543
966 964 -0.00011477988856729572
966 965 0.0094232333501101505
966 966 0.23303468471989172
967 97 0.015816677452542002
967 98 -0.00043054645612394484
967 99 4.0322495669867311e-05
967 271 0.01032375541424076
967 272 -0.00040595693937892839
967 273 -0.00014281974819720588
967 406 -0.014242346527770747
967 407 0.0041698944360951872
967 408 0.015963774999246949
967 409 -0.010930206007325199
967 410 -0.0039422594032599081
967 411 -0.015570301220595821
967 547 -0.016181306042949636
967 548 -0.0047140118057760064
967 549 0.017568684093549003
967 550 -0.004640650152154314
967 551 0.0093633806612846305
967 552 -0.011684811366097121
967 697 -0.037433656605366211
967 698 0.025597882397242439
967 699 0.00042442746161995885
967 703 -0.032273998640104974
967 704 -0.024318199540520211
967 705 0.0064129937097100898
967 964 -0.025436499536516225
967 965 0.014360893444216847
967 966 0.0025687051041842716
967 967 0.17853897344425235
968 97 -0.00043054645612394468
968 98 -0.0025313171954635767
968 99 0.012285056131294389
968 271 -0.00040595693937892915
968 272 -0.0067356154693930612
968 273 -0.014138257030800152
968 406 0.0041698944360951864
968 407 -0.009101934539488989
968 408 -0.0086821979883628074
968 409 -0.003942259403259909
968 410 0.0014987362773741335
968 411 -0.0022084178793686251
968 547 -0.0047140118057760047
968 548 -0.00038718264265638494
968 549 0.0035345282558391735
968 550 0.0093633806612846322
968 551 -0.012239397156754392
968 552 0.014524232028026836
968 697 0.025597882397242439
968 698 -0.047502781354436426
968 699 2.5676187912204978e-05
968 703 -0.024318199540520211
968 704 -0.037056033826314561
968 705 0.0042438658199537033
968 964 0.014360893444216847
968 965 -0.015341370869992314
968 966 -0.0010943132206936703
968 967 -0.0021364686500518594
968 968 0.18843835491992131
969 97 4.0322495669867474e-05
969 98 0.012285056131294388
969 99 -0.0045559048834386273
969 271 -0.00014281974819720637
969 272 -0.01413825703080015
969 273 -0.0086751677561899398
969 406 0.015963774999246949
969 407 -0.0086821979883628039
969 408 -0.024458578571409418
969 409 -0.015570301220595819
969 410 -0.0022084178793686264
969 411 -0.021023990391003076
969 547 0.017568684093549003
969 548 0.0035345282558391731
969 549 -0.022217847069029663
969 550 -0.011684811366097121
969 551 0.014524232028026834
969 552 -0.022897306005766661
969 697 0.0004244274616199602
969 698 2.5676187912205412e-05
969 699 -0.018469996047343895
969 703 0.0064129937097100898
969 704 0.0042438658199537042
969 705 -0.011667458600603196
969 964 0.002568705104184272
969 965 -0.0010943132206936716
969 966 0.00029193914140788926
969 967 -0.0039181664163041845
969 968 -0.0025999244932337841
969 969 0.14385769070029381
970 406 0.0058853047192516886
970 407 -0.0088780831435311021
970 408 0.0086453655399748221
970 409 -0.013643021542990715
970 410 -0.00070311464043146818
970 411 0.0011397561144442846
970 412 0.0011632210989489852
970 413 0.008752993334249691
970 414 -0.0085879894907085856
970 433 -0.01511103172987169
970 434 -0.010017333005993528
970 435 -0.015266606090204179
970 463 -0.015659443900090591
970 464 0.0084172564512636824
970 465 0.014927513851047257
970 547 -0.0046238129258183375
970 548 0.0067940588080668629
970 549 0.0083442393952994649
970 550 0.0072475819762340184
970 551 -0.0093319807174730325
970 552 -0.0086763323442524166
970 619 0.008052944343214824
970 620 -0.0080876733680434083
970 621 0.012834876428003655
970 652 -0.016083161214185574
970 653 0.0098119632230239066
970 654 -0.015318065180758206
970 961 -0.013706511361017845
970 962 0.019561641171988702
970 963 5.1750093344472923e-05
970 964 -0.031373349644036458
970 965 -0.0023534704264674472
970 966 -0.00017998928450176348
970 967 -0.013979672851500657
970 968 -0.011334510783121785
970 969 -0.00040538700999727731
970 970 0.20489379376965949
971 406 -0.0088780831435311038
971 407 0.011270600543038172
971 408 0.0089065771755891098
971 409 -0.00070311464043146742
971 410 -0.021960652678869139
971 411 0.01744865109971077
971 412 0.0087529933342496893
971 413 0.011840069346066412
971 414 0.0053192154602059415
971 433 -0.010017333005993528
971 434 -0.0081861756257772186
971 435 -0.01027292352469567
971 463 0.0084172564512636824
971 464 -0.020883876937886629
971 465 -0.020904550218673358
971 547 0.0067940588080668629
971 548 -0.01632819417077681
971 549 -0.017922018602776146
971 550 -0.0093319807174730325
971 551 0.016180007738072384
971 552 -0.0084881694168813301
971 619 -0.0080876733680434083
971 620 0.0093619818569660312
971 621 0.0051687608242596177
971 652 0.0098119632230239048
971 653 -0.021180611658133851
971 654 0.021049311394587083
971 961 0.019561641171988702
971 962 -0.019052971504526801
971 963 0.00052477904792818568
971 964 -0.0023534704264674454
971 965 0.0049278684787529541
971 966 4.8366982936377898e-06
971 967 -0.011334510783121783
971 968 -0.063581711396589566
971 969 -0.00066680683570326141
971 970 -0.0079520691179969846
971 971 0.22676895006913139
972 406 0.0086453655399748221
972 407 0.0089065771755891081
972 408 0.003624244628073816
972 409 0.0011397561144442865
972 410 0.017448651099710766
972 411 -0.032646601097952338
972 412 -0.0085879894907085856
972 413 0.0053192154602059415
972 414 0.0089032019057794128
972 433 -0.015266606090204179
972 434 -0.010272923524695669
972 435 -0.021137457949275112
972 463 0.014927513851047255
972 464 -0.020904550218673358
972 465 -0.039781913387599781
972 547 0.0083442393952994631
972 548 -0.017922018602776146
972 549 -0.024833757903799911
972 550 -0.0086763323442524184
972 551 -0.0084881694168813301
972 552 0.0044829188793316281
972 619 0.012834876428003655
972 620 0.0051687608242596186
972 621 -0.0053106944346740194
972 652 -0.015318065180758202
972 653 0.021049311394587083
972 654 -0.036971830276085041
972 961 5.1750093344472381e-05
972 962 0.00052477904792818568
972 963 0.0063378861112617646
972 964 -0.00017998928450176457
972 965 4.8366982936380067e-06
972 966 0.00041901639348286036
972 967 -0.00040538700999727742
972 968 -0.00066680683570326065
972 969 -0.012099882477222304
972 970 -0.0091931302454292228
972 971 0.0050918727351337446
972 972 0.18898290482472857
973 82 0.010633585300994439
973 83 0.00024888336193258214
973 84 0.00012673786034427591
973 172 0.015136583175782576
973 173 0.00024898134027488846
973 174 -2.3437703344303656e-05
973 304 -0.018333125668953197
973 305 0.0040556774215639892
973 306 -0.017180573204368454
973 307 -0.013410653905056373
973 308 -0.0042631677532023677
973 309 0.016514345942790269
973 529 -0.010522030928073325
973 530 -0.0056458164948081785
973 531 -0.016251282689187956
973 532 -0.012553594883656528
973 533 0.0053330908135743715
973 534 0.015781721972378419
973 781 -0.039048528138973262
973 782 0.025661465254329677
973 783 -0.00027430941538943154
973 784 -0.056471624809872549
973 785 -0.03110017892326503
973 786 0.00039493604437603413
973 958 -0.029833642142144109
973 959 -3.6645515121376082e-05
973 960 2.3939725095501602e-05
973 961 -0.0097259289833855119
973 962 -0.011292224775707946
973 963 -6.8560222801417785e-05
973 973 0.19119978537824259
974 82 0.00024888336193258263
974 83 -0.0072395186507500453
974 84 -0.013016858389037989
974 172 0.00024898134027488824
974 173 -0.0021587908692924955
974 174 0.012464921427096789
974 304 0.0040556774215639909
974 305 -0.012190266933056054
974 306 0.0088083191711321694
974 307 -0.0042631677532023694
974 308 -0.0017105396970115696
974 309 0.003312930725190206
974 529 -0.0056458164948081785
974 530 0.0028848501169100801
974 531 -0.0042878116714054441
974 532 0.0053330908135743706
974 533 -0.0085982932328090653
974 534 -0.0088884142046364144
974 781 0.02566146525432968
974 782 -0.048154858734907088
974 783 -0.00052666211816708181
974 784 -0.03110017892326503
974 785 -0.046858740842778274
974 786 0.00021012698252842292
974 958 -3.6645515121375865e-05
974 959 0.0069625157626807734
974 960 0.00090431873907708782
974 961 -0.011292224775707946
974 962 -0.053468140518332007
974 963 -0.0002200169126556382
974 973 0.0033821034087487783
974 974 0.1830410113551261
975 82 0.00012673786034427667
975 83 -0.013016858389037989
975 84 -0.0090737790102133498
975 172 -2.343770334430352e-05
975 173 0.012464921427096787
975 174 -0.0055942276899457136
975 304 -0.017180573204368454
975 305 0.0088083191711321712
975 306 -0.02430784145327566
975 307 0.016514345942790269
975 308 0.0033129307251902056
975 309 -0.023049690177891442
975 529 -0.016251282689187952
975 530 -0.0042878116714054441
975 531 -0.01789169833202502
975 532 0.015781721972378419
975 533 -0.0088884142046364162
975 534 -0.020174924182250389
975 781 -0.00027430941538943144
975 782 -0.00052666211816708094
975 783 -0.020803794643796256
975 784 0.00039493604437603396
975 785 0.00021012698252842249
975 786 -0.018918200772767166
975 958 2.3939725095501385e-05
975 959 0.0009043187390770876
975 960 0.0047701983518544516
975 961 -6.8560222801418002e-05
975 962 -0.00022001691265563744
975 963 -0.0076046424903775207
975 973 0.00036319239073889006
975 974 0.0012813500917196502
975 975 0.14117393903303363
976 85 0.024387822787890388
976 86 -8.6817872518343429e-05
976 87 -0.00050980513923646708
976 169 0.024880948106368116
976 170 -8.2670330316379127e-05
976 171 0.00051161062641013905
976 301 -0.020232168794362473
976 302 -0.0029055841123960253
976 303 -0.015075429193822612
976 304 -0.029339896656173311
976 305 0.0053371076408897057
976 306 0.022042424081983158
976 418 0.0015902862472586847
976 419 0.0026709625868891079
976 420 -0.012040864589782423
976 433 -0.010063387667942139
976 434 0.0035714138517636521
976 435 -0.0046589216170052307
976 463 0.0055421834868878408
976 464 -0.0085570591713210915
976 465 0.0092050941476531992
976 532 -0.031518668841630106
976 533 0.0065739423733783527
976 534 -0.023400156011942112
976 535 -0.019200605165960574
976 536 -0.0025263674620911595
976 537 0.014485003829152722
976 538 0.00086897885297577721
976 539 0.0031742487347970064
976 540 0.012007539596124023
976 619 -0.011083809293561444
976 620 0.0022871891026426082
976 621 0.004577120165401149
976 652 0.0051003841322723757
976 653 -0.0098515949271759523
976 654 -0.0092977073509264048
976 784 -0.015113142549308926
976 785 0.017921448399146635
976 786 -7.524041061323393e-05
976 802 -0.015400919876479579
976 803 -0.019148201196888606
976 804 9.2636985947724829e-05
976 961 -0.037601772691237087
976 962 -0.0025223706948337161
976 963 -0.00016635406732709237
976 970 -0.010541444401325734
976 971 -0.011386325759658315
976 972 -5.6740350682054578e-05
976 973 -0.027070824394904741
976 974 0.013407831861680611
976 975 0.00059328929936817119
976 976 0.22991104039799859
977 85 -8.6817872518343917e-05
977 86 0.0024458737258818601
977 87 -0.010435809688539625
977 169 -8.2670330316379453e-05
977 170 0.0030487441894619868
977 171 0.010380389421033991
977 301 -0.0029055841123960249
977 302 -0.017682420610559225
977 303 -0.01167996530216555
977 304 0.0053371076408897057
977 305 -0.021062749816913612
977 306 -0.012489163357181607
977 418 0.0026709625868891066
977 419 0.018458194432611548
977 420 0.0031959643977980002
977 433 0.0035714138517636512
977 434 -0.024459436841571321
977 435 0.0219782281284541
977 463 -0.0085570591713210933
977 464 0.010239909367722949
977 465 0.01022275122891116
977 532 0.0065739423733783536
977 533 -0.02116287510889555
977 534 0.012340873544107943
977 535 -0.0025263674620911595
977 536 -0.017149780104016282
977 537 0.011259569079798736
977 538 0.0031742487347970068
977 539 0.019190659258483931
977 540 -0.0024266961456044776
977 619 0.0022871891026426082
977 620 -0.01990319280714184
977 621 -0.019586397078703761
977 652 -0.0098515949271759523
977 653 0.0097154731535460115
977 654 -0.010784202189674822
977 784 0.017921448399146635
977 785 -0.025141892929764653
977 786 6.2187077153935807e-05
977 802 -0.019148201196888603
977 803 -0.026124653789538162
977 804 8.0954745409843711e-05
977 961 -0.0025223706948337165
977 962 -0.00010289688752605775
977 963 -0.00012623328122163282
977 970 -0.011386325759658313
977 971 -0.05376023874892296
977 972 -0.00036829991800438073
977 973 0.013407831861680611
977 974 -0.012509227755780335
977 975 -4.220384084176361e-05
977 976 -0.0078360397508395463
977 977 0.23229080168437488
978 85 -0.00050980513923646784
978 86 -0.010435809688539624
978 87 0.0060846933357355457
978 169 0.00051161062641013938
978 170 0.010380389421033989
978 171 0.0062187030527438838
978 301 -0.015075429193822609
978 302 -0.01167996530216555
978 303 -0.033870703877977894
978 304 0.022042424081983158
978 305 -0.012489163357181603
978 306 -0.04990350225331467
978 418 -0.012040864589782423
978 419 0.0031959643977980019
978 420 0.0088296405488457602
978 433 -0.0046589216170052324
978 434 0.021978228128454104
978 435 -0.033208306013015776
978 463 0.0092050941476532009
978 464 0.01022275122891116
978 465 0.00071633758812471976
978 532 -0.023400156011942112
978 533 0.01234087354410794
978 534 -0.0478108320372451
978 535 0.01448500382915272
978 536 0.011259569079798739
978 537 -0.031630931548884932
978 538 0.012007539596124021
978 539 -0.002426696145604478
978 540 0.0086017176967391022
978 619 0.0045771201654011499
978 620 -0.019586397078703764
978 621 -0.032833523726141442
978 652 -0.0092977073509264048
978 653 -0.010784202189674826
978 654 -3.4453448399779265e-05
978 784 -7.5240410613234513e-05
978 785 6.218707715393494e-05
978 786 -0.0034798304378808906
978 802 9.2636985947724829e-05
978 803 8.0954745409843982e-05
978 804 -0.0024693899305585506
978 961 -0.00016635406732709427
978 962 -0.00012623328122163204
978 963 -0.0026369048382846394
978 970 -5.6740350682053711e-05
978 971 -0.00036829991800438051
978 972 -0.0090427282226544486
978 973 0.00059328929936817184
978 974 -4.220384084176361e-05
978 975 0.0014746613676544604
978 976 0.0011476011596253228
978 977 0.00015107984434852722
978 978 0.22620981268407042
979 28 0.00027892418655362373
979 29 -0.00050341039040052065
979 30 -0.010088516439616967
979 283 -0.0042919057636560242
979 284 0.0042036714540511968
979 285 0.012522789272400591
979 412 0.011563091804345402
979 413 -0.0089265836704182366
979 414 0.0056429839293245616
979 415 -0.019525770430184507
979 416 0.0047575145004973892
979 417 -0.011807954622006466
979 418 -0.01131954999110789
979 419 -0.0018424164690488275
979 420 -0.0027319163036712635
979 433 -0.018098629362179257
979 434 0.0020280359019319359
979 435 0.016511066932324188
979 538 -0.006276007514722408
979 539 -0.0012500032363297446
979 540 0.0025142802101683257
979 541 0.0021311488378613175
979 542 -0.001153119874633215
979 543 -0.00056212553806019245
979 619 0.0031542908620547051
979 620 0.0034500881563222291
979 621 -0.012039177309207019
979 739 -0.027107792056591907
979 740 0.018573530222573971
979 741 -0.0018589327800898705
979 742 -0.030029961549660335
979 743 -0.021903756583530897
979 744 -5.983915574935255e-05
979 976 -0.024382527511377164
979 977 0.020280956670844775
979 978 0.00010098558168549323
979 979 0.1956632363608867
980 28 -0.00050341039040052108
980 29 0.020858023495728399
980 30 0.00049448023856543363
980 283 0.0042036714540511959
980 284 0.010147011974668682
980 285 -0.0025902771947086596
980 412 -0.0089265836704182349
980 413 -0.00011129388255711218
980 414 0.0081092942194370115
980 415 0.0047575145004973883
980 416 -0.022644431794230951
980 417 0.015613177289655375
980 418 -0.0018424164690488262
980 419 -0.031695894464570419
980 420 -0.025311257560194984
980 433 0.0020280359019319359
980 434 0.0021355117109477539
980 435 -0.00011127378707337897
980 538 -0.0012500032363297446
980 539 -0.024539162681967763
980 540 0.022867167067786277
980 541 -0.0011531198746332144
980 542 -0.010031954933465271
980 543 -0.016567583147152936
980 619 0.0034500881563222291
980 620 0.020511702981769697
980 621 -0.002158157397247857
980 739 0.018573530222573971
980 740 -0.012135543709847953
980 741 0.0021598486158842904
980 742 -0.021903756583530901
980 743 -0.020714819936188976
980 744 0.00023702194542760883
980 976 0.020280956670844778
980 977 -0.020870482819368201
980 978 -0.00018252715818188115
980 979 0.0074919555786432217
980 980 0.2241158461905518
981 28 -0.010088516439616968
981 29 0.00049448023856543406
981 30 0.0040747174843723359
981 283 0.012522789272400593
981 284 -0.0025902771947086591
981 285 -0.00039712148967053823
981 412 0.0056429839293245625
981 413 0.0081092942194370098
981 414 0.010044350797628044
981 415 -0.011807954622006466
981 416 0.015613177289655378
981 417 -0.036937782464670013
981 418 -0.0027319163036712626
981 419 -0.025311257560194981
981 420 -0.038396017717679524
981 433 0.016511066932324184
981 434 -0.00011127378707337799
981 435 -0.01569816633321686
981 538 0.0025142802101683261
981 539 0.022867167067786281
981 540 -0.029369823208813508
981 541 -0.00056212553806019277
981 542 -0.016567583147152936
981 543 -0.021774440842213277
981 619 -0.012039177309207019
981 620 -0.0021581573972478561
981 621 -0.0038128588149250664
981 739 -0.0018589327800898703
981 740 0.0021598486158842896
981 741 -0.0023701592863239387
981 742 -5.9839155749353418e-05
981 743 0.0002370219454276097
981 744 -0.0053705277190212539
981 976 0.00010098558168549192
981 977 -0.00018252715818188061
981 978 -0.0075906064741567232
981 979 0.011481872212867575
981 980 0.013487987561355549
981 981 0.18249049031632175
982 25 0.0011705947182952979
982 26 0.0015490910139233736
982 27 -0.0099151837124942209
982 88 0.022421882460180165
982 89 0.0018316542187895211
982 90 0.00063270758690895735
982 166 0.023093928751032479
982 167 0.0017911311394535824
982 168 -0.00069297856165145312
982 286 0.0019181126666823834
982 287 0.0017887975372278149
982 288 0.0095688324311135643
982 301 -0.012555143218762402
982 302 0.0019683360764993596
982 303 0.017967356875571567
982 418 -0.0044593179432676966
982 419 -0.001600149359116177
982 420 0.0015087152616180977
982 427 -0.026791239063463909
982 428 -0.0034402609789641694
982 429 -0.010455060327408488
982 535 -0.012144171950044911
982 536 0.001687755388564472
982 537 -0.01760423087881291
982 538 -0.0052197719103098481
982 539 -0.0024675601217314658
982 540 -0.001921956842118868
982 604 -0.026230313057252271
982 605 -0.0031202487575377677
982 606 0.010379709631447995
982 742 -0.023360686862202041
982 743 0.02362262523420712
982 744 0.00053922611249492946
982 745 -0.044020885474591868
982 746 -0.021576054592957698
982 747 0.00010275524747843136
982 802 -0.025440504625017134
982 803 0.024952286018213043
982 804 -3.0745363212761074e-05
982 808 -0.031270744262108283
982 809 -0.021691383559119527
982 810 8.06312669202247e-05
982 976 -0.044126194466820777
982 977 -0.017323207957610616
982 978 -4.6683724621491987e-05
982 979 0.0022114726686131821
982 980 -0.0049718801007847596
982 981 -0.00010081799690748712
982 982 0.20480298156903765
983 25 0.0015490910139233734
983 26 0.02292164278128991
983 27 0.00072744216947729181
983 88 0.0018316542187895217
983 89 0.00088214493236236989
983 90 -0.010274168438771963
983 166 0.0017911311394535813
983 167 0.0014029723535988806
983 168 0.010168757887247176
983 286 0.0017887975372278147
983 287 0.023873353468176383
983 288 -0.00055284060947648997
983 301 0.0019683360764993596
983 302 0.0038047377134652134
983 303 -0.0020435939134091355
983 418 -0.0016001493591161762
983 419 -0.019806785163566879
983 420 0.02141090606895342
983 427 -0.0034402609789641707
983 428 -0.027001966809489335
983 429 -0.010512697913486385
983 535 0.0016877553885644725
983 536 0.005178096690992012
983 537 0.0019914192589381881
983 538 -0.0024675601217314662
983 539 -0.023803902714196298
983 540 -0.022690020961965297
983 604 -0.0031202487575377677
983 605 -0.026286058215155488
983 606 0.010389228294177206
983 742 0.02362262523420712
983 743 -0.020549455616391633
983 744 -0.00025905848038465398
983 745 -0.021576054592957698
983 746 -0.030841277530750805
983 747 8.9277986677001623e-05
983 802 0.024952286018213046
983 803 -0.024109970735547
983 804 6.4906950250767387e-05
983 808 -0.021691383559119527
983 809 -0.045341936196849938
983 810 7.8976676344892117e-05
983 976 -0.017323207957610619
983 977 -0.014844743920074909
983 978 2.4116433486519383e-05
983 979 -0.0049718801007847604
983 980 -0.035924028359213593
983 981 -0.00031242857757962672
983 982 0.016999068800943897
983 983 0.21044717732135113
984 25 -0.0099151837124942209
984 26 0.0007274421694772917
984 27 0.004466558325773801
984 88 0.00063270758690895832
984 89 -0.010274168438771963
984 90 0.003798026120824154
984 166 -0.00069297856165145269
984 167 0.010168757887247174
984 168 0.0040773493197185148
984 286 0.0095688324311135643
984 287 -0.00055284060947648965
984 288 0.0046473478256051394
984 301 0.01796735687557157
984 302 -0.0020435939134091359
984 303 -0.019179663751200789
984 418 0.0015087152616180964
984 419 0.021410906068953423
984 420 -0.02447569931276946
984 427 -0.010455060327408488
984 428 -0.010512697913486387
984 429 -0.033597987210418123
984 535 -0.017604230878812913
984 536 0.0019914192589381881
984 537 -0.017595778827938849
984 538 -0.0019219568421188682
984 539 -0.022690020961965297
984 540 -0.025718006520797938
984 604 0.010379709631447995
984 605 0.010389228294177207
984 606 -0.032062050109015104
984 742 0.00053922611249493011
984 743 -0.0002590584803846535
984 744 -0.0033287172695756159
984 745 0.00010275524747843049
984 746 8.9277986677001799e-05
984 747 -0.012583975132169687
984 802 -3.0745363212761833e-05
984 803 6.4906950250767279e-05
984 804 -0.0033199905441362513
984 808 8.0631266920224307e-05
984 809 7.8976676344891684e-05
984 810 -0.013032791967334265
984 976 -4.6683724621491987e-05
984 977 2.4116433486519491e-05
984 978 -0.0071320116708525746
984 979 -0.00010081799690748647
984 980 -0.00031242857757962688
984 981 0.0041414262880491931
984 982 -1.227700632609025e-05
984 983 0.0016997771695210872
984 984 0.17089596443623783
985 91 0.022335708398996422
985 92 -0.0019801780935818202
985 93 0.00065868161069208202
985 280 -0.005330642338508905
985 281 0.0025655626678779994
985 282 0.01111140805046913
985 283 0.017482447724428005
985 284 -0.0076174475047199493
985 285 0.0090567266194297221
985 412 -0.024754089414747008
985 413 0.0054047299750035705
985 414 0.022298734383656798
985 415 -0.0017121720822021874
985 416 -0.0076421283817789711
985 417 -0.0081040730162181118
985 430 -0.019924095230882635
985 431 0.0064077553501069931
985 432 -0.014092087493548547
985 541 -0.0097123749246360667
985 542 0.002452948671664843
985 543 -0.0078181522404206834
985 544 -0.011919894068415218
985 545 -0.0063789684056390393
985 546 -0.016274092418795814
985 607 -0.0053454292180251444
985 608 0.0054896809484878449
985 609 0.0062480665512062968
985 715 -0.0046025781581442863
985 716 -0.01781694786993001
985 717 -0.0038063060485529496
985 733 -0.021101303815392568
985 734 0.015591873432021057
985 735 0.0038584952266714646
985 739 -0.026605293990771915
985 740 -0.016707232854317994
985 741 -0.0079420108329021893
985 748 -0.050641036073810444
985 749 0.01615478377667514
985 750 -0.0087008136064059827
985 979 -0.0098036361385880171
985 980 0.0099101783426239418
985 981 0.0044757538649257559
985 985 0.2026475764147441
986 91 -0.0019801780935818207
986 92 0.00079143292293485648
986 93 0.010305442112116167
986 280 0.0025655626678780003
986 281 0.012873672975421347
986 282 -0.0023511682689410199
986 283 -0.0076174475047199493
986 284 0.0058691946332158941
986 285 0.0065420291277706764
986 412 0.0054047299750035714
986 413 -0.0085494587775534706
986 414 -0.003949171732769317
986 415 -0.0076421283817789719
986 416 -0.0073271514801184212
986 417 -0.013193265303414655
986 430 0.0064077553501069914
986 431 -0.0071652708617987171
986 432 0.0067329822178837833
986 541 0.0024529486716648435
986 542 -0.011723325960969075
986 543 0.015597000307481941
986 544 -0.0063789684056390402
986 545 -0.0046965950811338033
986 546 -0.0076627014010157077
986 607 0.0054896809484878432
986 608 -0.018031133636040881
986 609 -0.013555505657403842
986 715 -0.01781694786993001
986 716 -0.014806337122158942
986 717 0.00011006432167409708
986 733 0.015591873432021059
986 734 -0.049224588608417587
986 735 -0.0092123372254148995
986 739 -0.01670723285431799
986 740 -0.0095751213614052484
986 741 -0.0072099291207459362
986 748 0.01615478377667514
986 749 -0.022234332310363397
986 750 0.0034718689697801636
986 979 0.0099101783426239418
986 980 -0.051671528077808233
986 981 -0.0084432634249291347
986 985 -0.021664284439499571
986 986 0.1934103358068103
987 91 0.00065868161069208234
987 92 0.010305442112116165
987 93 0.0041265238360760981
987 280 0.011111408050469129
987 281 -0.0023511682689410203
987 282 -0.0010448770030481516
987 283 0.0090567266194297204
987 284 0.0065420291277706773
987 285 0.015677413034804511
987 412 0.022298734383656801
987 413 -0.0039491717327693153
987 414 -0.027336216638994885
987 415 -0.0081040730162181118
987 416 -0.013193265303414655
987 417 -0.021160488431016006
987 430 -0.014092087493548545
987 431 0.0067329822178837833
987 432 -0.024945925456200876
987 541 -0.0078181522404206817
987 542 0.015597000307481942
987 543 -0.028990315763471556
987 544 -0.016274092418795818
987 545 -0.0076627014010157085
987 546 -0.025563964757449358
987 607 0.0062480665512062977
987 608 -0.013555505657403842
987 609 -0.023337473158959135
987 715 -0.0038063060485529505
987 716 0.00011006432167409621
987 717 0.0030789205823668949
987 733 0.0038584952266714646
987 734 -0.009212337225414903
987 735 -0.015406216635778951
987 739 -0.007942010832902191
987 740 -0.0072099291207459362
987 741 -0.0066111175248479365
987 748 -0.0087008136064059844
987 749 0.0034718689697801632
987 750 -0.015623611383709013
987 979 0.0044757538649257567
987 980 -0.008443263424929133
987 981 -0.0099939434054887276
987 985 0.012615061275763294
987 986 0.016812348233900112
987 987 0.17624169743430479
988 148 -0.00053029388910329461
988 149 -0.0072911562930234024
988 150 0.0080590486932615481
988 151 -0.003863024855982139
988 152 0.0044536823809818871
988 153 0.0099151474702739995
988 355 -0.0084129593284641251
988 356 0.00027613984044191144
988 357 -0.0010801454264796318
988 358 -0.049392675960098824
988 359 0.00374080602781297
988 360 0.012731190828694471
988 361 -0.0059368713531081406
988 362 0.0082023321794010527
988 363 -0.007946404830687084
988 424 -0.0015701003326414815
988 425 0.00015818805901198245
988 426 -0.0015191686405480556
988 436 -0.01423828588643015
988 437 -0.0068174613346700837
988 438 -0.016268199814543773
988 667 -0.0095153404725508879
988 668 0.013248839531168849
988 669 -0.0058168773989542774
988 670 -0.050491717593936211
988 671 0.00075672546126511354
988 672 -0.009535943253048601
988 673 0.007504002973026818
988 674 -0.011351934515985335
988 675 -0.0043583795110003661
988 811 -0.022689771572060872
988 812 0.0053195348583090539
988 813 0.006859073370909673
988 814 -0.0065512138620398182
988 815 0.00051035830877928744
988 816 -0.0032589706882681117
988 817 -0.011764288622900302
988 818 0.0087917416110359237
988 819 0.0077056056176634186
988 820 0.014352761798670805
988 821 -0.0007976433929160788
988 822 0.0016647461302411988
988 988 0.18952319088038291
989 148 -0.0072911562930234024
989 149 0.020516945176643826
989 150 0.0049047274409098219
989 151 0.0044536823809818871
989 152 0.019867735814821902
989 153 -0.0043051462529012114
989 355 0.00027613984044191106
989 356 -0.028775937926150026
989 357 -0.020823774200522803
989 358 0.0037408060278129695
989 359 -0.081798525800861777
989 360 -0.0020646886476895282
989 361 0.0082023321794010545
989 362 -0.015433440514971565
989 363 0.011239836313828624
989 424 0.00015818805901198201
989 425 -0.023235882310797915
989 426 0.010622832043294042
989 436 -0.0068174613346700845
989 437 0.00028082952432012835
989 438 -0.0079941440835453233
989 667 0.013248839531168849
989 668 -0.0063296118508306375
989 669 0.0061205265522507706
989 670 0.00075672546126511419
989 671 -0.044472212419254364
989 672 -0.0011660078856373173
989 673 -0.011351934515985335
989 674 0.00095997029633709797
989 675 -0.0076886522211439797
989 811 0.0053195348583090531
989 812 -0.04572701343891155
989 813 -0.021840702432855501
989 814 0.00051035830877928733
989 815 -0.0091607155133933572
989 816 0.0057620207787697775
989 817 0.0087917416110359237
989 818 0.0094866611327470603
989 819 -0.0032356672709760084
989 820 -0.00079764339291607967
989 821 -0.0064318955905044413
989 822 0.0081789737592106795
989 988 -0.0063830263031581427
989 989 0.22891466905914584
990 148 0.0080590486932615481
990 149 0.0049047274409098236
990 150 0.0048258303637057987
990 151 0.0099151474702740012
990 152 -0.0043051462529012105
990 153 0.0021601565130725015
990 355 -0.0010801454264796307
990 356 -0.020823774200522806
990 357 -0.020325413196413584
990 358 0.012731190828694471
990 359 -0.0020646886476895264
990 360 -0.10620363254524033
990 361 -0.0079464048306870858
990 362 0.011239836313828626
990 363 -0.0075331163845353769
990 424 -0.0015191686405480553
990 425 0.010622832043294044
990 426 -0.0022346832378636011
990 436 -0.016268199814543777
990 437 -0.0079941440835453233
990 438 -0.0096794284309635083
990 667 -0.0058168773989542791
990 668 0.0061205265522507714
990 669 0.0047948284081006142
990 670 -0.0095359432530486028
990 671 -0.001166007885637318
990 672 -0.033993181166459233
990 673 -0.0043583795110003661
990 674 -0.0076886522211439805
990 675 0.010352638566551499
990 811 0.006859073370909673
990 812 -0.021840702432855498
990 813 -0.057682582607908789
990 814 -0.0032589706882681108
990 815 0.0057620207787697757
990 816 -0.052819379031784755
990 817 0.0077056056176634195
990 818 -0.0032356672709760088
990 819 0.010888665243955334
990 820 0.0016647461302411988
990 821 0.0081789737592106795
990 822 0.014281772592747396
990 988 -0.0085523889744395145
990 989 0.013747619947573675
990 990 0.26192527206936045
991 349 0.0013490958274280467
991 350 -0.0066530816594201521
991 351 -0.010173994463006396
991 352 0.0022824406837824215
991 353 0.0033003343251377876
991 354 0.00341876395292661
991 355 0.00021203156435186982
991 356 0.0011567592287737027
991 357 0.014922065594369914
991 436 -0.011968558612375599
991 437 0.0063870287134928112
991 438 -0.01205798349407854
991 484 0.001066411787052207
991 485 0.003495675313885381
991 486 -0.0038832702768778816
991 487 0.0013561959776345902
991 488 -0.0072535676684593849
991 489 0.010348645349995786
991 601 -0.0010057961370092371
991 602 0.0014328491524370872
991 603 -0.012444946153349359
991 616 -0.014520885069698954
991 617 0.0058539068213631319
991 618 0.010822347320490618
991 811 0.0097486174917064215
991 812 -0.0091400495578398931
991 813 -0.0018418703308261371
991 814 -0.035633452035319584
991 815 -0.0063700187744350021
991 816 -0.01166405189152683
991 817 -0.0054388197486028231
991 818 0.015121138664317349
991 819 -0.00073094849778024555
991 820 -0.050004926034279938
991 821 0.0286943971650718
991 822 -0.0006523727926917392
991 826 -0.064261719143490867
991 827 0.0093991197902236374
991 828 -0.00063144603183049779
991 988 -0.026423411922764276
991 989 -0.012817126418454988
991 990 0.011401666426925104
991 991 0.21227542403825037
992 349 -0.0066530816594201512
992 350 0.01325564476458037
992 351 -0.0072887896195147749
992 352 0.0033003343251377885
992 353 -0.0091658615121289668
992 354 -0.014953337555769089
992 355 0.0011567592287737029
992 356 0.010254858503988797
992 357 -0.0020056716346636828
992 436 0.006387028713492812
992 437 -0.019537901731298934
992 438 0.019070266607256178
992 484 0.0034956753138853814
992 485 -0.012587036606006729
992 486 0.015094057509328618
992 487 -0.0072535676684593849
992 488 0.0098409383184827597
992 489 0.0068372532575101015
992 601 0.0014328491524370868
992 602 0.013378120390372309
992 603 0.0011731889924684463
992 616 0.0058539068213631319
992 617 -0.027670224339960799
992 618 -0.022297580440652741
992 811 -0.0091400495578398896
992 812 -0.0051678885301360555
992 813 -0.0088451266930381304
992 814 -0.0063700187744350004
992 815 -0.017504008895364881
992 816 0.00069830301599300266
992 817 0.015121138664317345
992 818 -0.026498615894408814
992 819 0.0050096979286217919
992 820 0.0286943971650718
992 821 -0.040343354716000285
992 822 -0.0007046218877831429
992 826 0.0093991197902236374
992 827 -0.015669139366725836
992 828 0.00063145055405241287
992 988 -0.012817126418454989
992 989 -0.018661575638340241
992 990 0.0085422461594342816
992 991 -0.015223582885838308
992 992 0.20829648364492565
993 349 -0.010173994463006396
993 350 -0.0072887896195147767
993 351 0.0058978402430930844
993 352 0.0034187639529266113
993 353 -0.014953337555769091
993 354 -0.0077741137113646226
993 355 0.014922065594369914
993 356 -0.0020056716346636841
993 357 -0.00065029185723417806
993 436 -0.01205798349407854
993 437 0.019070266607256182
993 438 -0.047217989830243251
993 484 -0.003883270276877882
993 485 0.015094057509328618
993 486 -0.010351103788209113
993 487 0.010348645349995788
993 488 0.0068372532575101006
993 489 0.0054280910671889553
993 601 -0.012444946153349361
993 602 0.0011731889924684465
993 603 -0.0016482294226880293
993 616 0.01082234732049062
993 617 -0.022297580440652741
993 618 -0.056459214500602484
993 811 -0.0018418703308261371
993 812 -0.0088451266930381287
993 813 0.011930776838897372
993 814 -0.011664051891526828
993 815 0.0006983030159930032
993 816 -0.014274657985044296
993 817 -0.00073094849778024512
993 818 0.005009697928621791
993 819 -0.0008611167987740186
993 820 -0.0006523727926917379
993 821 -0.00070462188778314398
993 822 -0.020631453079458517
993 826 -0.00063144603183049931
993 827 0.0006314505540524133
993 828 -0.015101240321033898
993 988 0.011401666426925104
993 989 0.0085422461594342834
993 990 -0.018757747156324389
993 991 0.0033079811867868384
993 992 -0.0015700982723135352
993 993 0.19518587777225452
994 37 0.017481035046602117
994 38 -0.0007366073979337746
994 39 -0.00053789614881489959
994 217 0.018829766846353763
994 218 -0.00075354026703430995
994 219 0.00047994673491224296
994 349 -0.021121798089149164
994 350 0.0042824283769026146
994 351 -0.017801648748611811
994 352 -0.018757980938407505
994 353 -0.0033848850682337318
994 354 0.017540744685245045
994 484 -0.015325901551368211
994 485 -0.0029793523920973435
994 486 -0.016601015783495369
994 487 -0.014340071697505211
994 488 0.0036660461740659063
994 489 0.015236884037655787
994 769 -0.027687253668095296
994 770 -0.022330073009757999
994 771 -0.00017773086538253486
994 787 -0.035932944665331645
994 788 0.026599948529947268
994 789 -0.00017369225135585852
994 820 -0.030235880504964306
994 821 -0.0021388736520995995
994 822 -0.00032273918195710547
994 826 -0.0038072131966277725
994 827 0.01626447112661733
994 828 0.00043325176915066932
994 835 -0.032354389317904034
994 836 -0.0036653832091037264
994 837 0.0010725298739120372
994 991 -0.019032648666664664
994 992 -0.01738378221025496
994 993 -0.00014058589952724486
994 994 0.18228528040306191
995 37 -0.00073660739793377438
995 38 -0.0020697276266468272
995 39 -0.011295481608830387
995 217 -0.00075354026703431027
995 218 -0.00055217327312592898
995 219 0.011130133194586334
995 349 0.0042824283769026137
995 350 -0.015538119631342115
995 351 0.0098205327653156024
995 352 -0.0033848850682337314
995 353 -0.0040597497308978905
995 354 0.0031334728115644866
995 484 -0.0029793523920973422
995 485 -0.0008654345415480191
995 486 -0.0020963781378047211
995 487 0.0036660461740659071
995 488 -0.010125985732425347
995 489 -0.0074076676302825811
995 769 -0.022330073009757999
995 770 -0.035191774424966758
995 771 0.0001767537975441119
995 787 0.026599948529947265
995 788 -0.041555090971014202
995 789 8.2117163492750412e-05
995 820 -0.0021388736520996008
995 821 0.0050356987575266698
995 822 -0.00024740389539068108
995 826 0.01626447112661733
995 827 -0.014302644298780486
995 828 -0.00079981029904787736
995 835 -0.0036653832091037269
995 836 0.004214765283878345
995 837 -0.00029654669990606059
995 991 -0.017383782210254956
995 992 -0.062220438391978328
995 993 0.0006087620790702626
995 994 0.0025596029989823298
995 995 0.17723067458132094
996 37 -0.00053789614881489872
996 38 -0.011295481608830388
996 39 -0.0015152702103002718
996 217 0.00047994673491224323
996 218 0.011130133194586337
996 219 -0.00065938840691391804
996 349 -0.017801648748611804
996 350 0.0098205327653156024
996 351 -0.034532412972527668
996 352 0.017540744685245045
996 353 0.0031334728115644866
996 354 -0.024159724720336805
996 484 -0.016601015783495373
996 485 -0.0020963781378047219
996 486 -0.021721296309195282
996 487 0.015236884037655786
996 488 -0.0074076676302825793
996 489 -0.031755940605958995
996 769 -0.00017773086538253573
996 770 0.00017675379754411059
996 771 -0.012428311114223441
996 787 -0.00017369225135585955
996 788 8.2117163492751496e-05
996 789 -0.012871371726573422
996 820 -0.00032273918195710634
996 821 -0.00024740389539068238
996 822 0.0025804273506281391
996 826 0.00043325176915066807
996 827 -0.00079981029904787671
996 828 0.0057640174724488168
996 835 0.0010725298739120363
996 836 -0.00029654669990606059
996 837 0.0030199573027478348
996 991 -0.0001405858995272444
996 992 0.0006087620790702639
996 993 -0.024715427470457126
996 994 0.00099195177826904473
996 995 -0.0028084835403112407
996 996 0.15299474141066211
997 136 -0.010879761618906228
997 137 0.0085539067321938073
997 138 -0.008590946980503297
997 139 -0.012913946656659205
997 140 -0.012563566013954881
997 141 0.0049944225953746325
997 364 -0.00081121782311658437
997 365 0.0069957803462307872
997 366 0.010465247734144542
997 367 -0.024095031848545959
997 368 -9.8961047800502871e-05
997 369 -0.0003937871484565559
997 370 9.0796313031166827e-05
997 371 -0.0074406551156157019
997 372 -0.012745583790881459
997 694 -0.002320428133257584
997 695 0.011229908415277729
997 696 0.0076623340662096201
997 709 -0.012726416557190616
997 710 -0.0094180176062475356
997 711 -0.0066583819825751702
997 823 -0.031870940722506104
997 824 -0.0034699053917565731
997 825 -0.021303468178211757
997 829 -0.019868311369519602
997 830 -0.00054287044395254138
997 831 0.0093762190576229219
997 832 -0.0061045251840035177
997 833 0.0096675175676675176
997 834 0.00028592716034914157
997 838 -0.024317579095369697
997 839 0.002446874260552223
997 840 0.0020801912213203504
997 841 -0.0001334546778282424
997 842 -0.0098049306386611013
997 843 0.0009391304066715745
997 997 0.14595081737387217
998 136 0.0085539067321938073
998 137 -0.021857918407182354
998 138 0.017452186215349122
998 139 -0.012563566013954881
998 140 -0.012333671996852355
998 141 0.0076896074999501423
998 364 0.0069957803462307889
998 365 0.013346539201518761
998 366 0.00084061476614512125
998 367 -9.8961047800503088e-05
998 368 -0.036545192050612504
998 369 -0.025711284606057296
998 370 -0.0074406551156157028
998 371 0.0065978639460882987
998 372 -0.0047918076817437417
998 694 0.011229908415277731
998 695 -0.006087292406281428
998 696 -0.0071483233601572337
998 709 -0.0094180176062475356
998 710 -0.041668945298974989
998 711 -0.019638149174666313
998 823 -0.0034699053917565744
998 824 -0.0059201881610085353
998 825 -0.0014045191546381511
998 829 -0.00054287044395254127
998 830 -0.01930728278771314
998 831 0.0081948675919133081
998 832 0.0096675175676675176
998 833 -0.033587560774051201
998 834 0.0063517219241762315
998 838 0.0024468742605522243
998 839 0.00181889695941232
998 840 0.0010480279167749504
998 841 -0.0098049306386611013
998 842 -0.018766338168842951
998 843 0.0007372686383164918
998 997 0.0044449189360667709
998 998 0.17431108994450006
999 136 -0.0085909469805032952
999 137 0.017452186215349122
999 138 -0.021731066162745477
999 139 0.0049944225953746316
999 140 0.0076896074999501414
999 141 -0.0064792939243014111
999 364 0.010465247734144542
999 365 0.00084061476614512038
999 366 0.012238408063329216
999 367 -0.00039378714845655644
999 368 -0.025711284606057292
999 369 -0.071565357876995195
999 370 -0.012745583790881461
999 371 -0.0047918076817437417
999 372 -0.011354684109519991
999 694 0.0076623340662096201
999 695 -0.0071483233601572337
999 696 0.0033001642040699783
999 709 -0.0066583819825751702
999 710 -0.019638149174666317
999 711 -0.026482970296550286
999 823 -0.021303468178211753
999 824 -0.0014045191546381514
999 825 -0.026981588771052903
999 829 0.0093762190576229237
999 830 0.0081948675919133081
999 831 -0.076288021346237161
999 832 0.00028592716034914071
999 833 0.0063517219241762315
999 834 -0.0014991861512361035
999 838 0.0020801912213203508
999 839 0.0010480279167749506
999 840 0.0053030966216339051
999 841 0.00093913040667157428
999 842 0.00073726863831649202
999 843 0.0065667994405050551
999 997 0.013888695838935454
999 998 0.016379789424637362
999 999 0.21497370030910037
1000 235 -0.0039381500851211918
1000 236 -0.0064445056434454234
1000 237 -0.0062882632412571797
1000 238 -0.003118862792308775
1000 239 0.0093755117813554521
1000 240 0.0069401915570047948
1000 583 -0.030088606706989054
1000 584 -0.014294521265772339
1000 585 0.016646698214512035
1000 586 -0.02341756706721769
1000 587 0.012452696443395635
1000 588 -0.011832529315919382
1000 691 -0.0099601303659427251
1000 692 0.0077749591337811152
1000 693 -0.0039943263967310797
1000 694 -0.0092755869757224236
1000 695 -0.012056697714413195
1000 696 0.0052917474304690027
1000 838 -0.027323738012700167
1000 839 0.0079055353824702187
1000 840 0.014736566305709846
1000 850 -0.00097244924497546527
1000 851 -0.0021032575932015416
1000 852 -0.0028138545197664974
1000 853 -0.045819942803940771
1000 854 -0.0048256393541681328
1000 855 -0.011191752061781747
1000 1000 0.15391503405491827
1001 235 -0.0064445056434454242
1001 236 -0.017648766280508359
1001 237 -0.015260409054377755
1001 238 0.0093755117813554521
1001 239 0.0039812115659521819
1001 240 -0.0058942582112849282
1001 583 -0.014294521265772339
1001 584 -0.028611184617615273
1001 585 0.017846336326266515
1001 586 0.012452696443395637
1001 587 -0.010962477480643162
1001 588 0.005334815832342554
1001 691 0.0077749591337811152
1001 692 -0.038815836002570395
1001 693 0.017856145510795954
1001 694 -0.012056697714413193
1001 695 -0.00029634746188699585
1001 696 0.0052462420342341632
1001 838 0.0079055353824702204
1001 839 -0.016078613941915777
1001 840 -0.0062183493647476936
1001 850 -0.0021032575932015429
1001 851 -0.024758707017800783
1001 852 -0.0043539265164387695
1001 853 -0.0048256393541681319
1001 854 -0.012596662715660713
1001 855 -0.00027757690282905942
1001 1000 0.0022159188299982081
1001 1001 0.14578738395264929
1002 235 -0.0062882632412571788
1002 236 -0.015260409054377753
1002 237 -0.016807833046557783
1002 238 0.0069401915570047939
1002 239 -0.0058942582112849274
1002 240 0.0019070981528576166
1002 583 0.016646698214512035
1002 584 0.017846336326266515
1002 585 -0.045705328354790485
1002 586 -0.011832529315919381
1002 587 0.005334815832342554
1002 588 -0.0064628584974178267
1002 691 -0.0039943263967310814
1002 692 0.017856145510795954
1002 693 -0.022179617666809912
1002 694 0.0052917474304690027
1002 695 0.0052462420342341632
1002 696 0.0056199787013194126
1002 838 0.014736566305709848
1002 839 -0.0062183493647476927
1002 840 -0.049930493724622625
1002 850 -0.0028138545197664978
1002 851 -0.0043539265164387695
1002 852 -0.00060219409242506512
1002 853 -0.011191752061781746
1002 854 -0.00027757690282905964
1002 855 -0.02515725724894638
1002 1000 -0.0074944779722397967
1002 1001 -0.014279019653960985
1002 1002 0.15931850577739304
1003 43 -0.0024255235288202846
1003 44 0.0059078284999469557
1003 45 0.0059014657420456184
1003 46 -0.00092287468386501785
1003 47 -0.0072475164984704844
1003 48 -0.0090788557040610007
1003 211 0.017155905246499556
1003 212 0.001617157516903998
1003 213 -0.0016679569862254903
1003 343 -0.008922481886916472
1003 344 0.0067932199441116132
1003 345 -0.010661319502664135
1003 346 -0.011362955004054102
1003 347 -0.0061109650494418633
1003 348 0.014349210638731473
1003 490 0.0011431910300053263
1003 491 -0.0047676625017548371
1003 492 -0.015068274345193991
1003 493 -0.013938002303224221
1003 494 0.0049244257339330797
1003 495 0.015478870379439158
1003 751 -0.047173465997139383
1003 752 -0.026371982513437472
1003 753 0.010241818046668346
1003 775 -0.058303405995413428
1003 776 0.020169700041807341
1003 777 -9.0070819810727154e-05
1003 844 -0.036460263782947297
1003 845 -0.010802230147149008
1003 846 0.00092877889445064539
1003 847 -0.044660358613075921
1003 848 0.015260802430458954
1003 849 0.0039214783064803567
1003 1003 0.20587023551895123
1004 43 0.0059078284999469557
1004 44 -0.01630279948439976
1004 45 -0.014993716661935743
1004 46 -0.0072475164984704852
1004 47 0.0073917824134985951
1004 48 -0.007026571935707198
1004 211 0.0016171575169039972
1004 212 -7.3956479559296375e-05
1004 213 0.012338990156766936
1004 343 0.0067932199441116141
1004 344 -0.02189109656182733
1004 345 0.01896256349686562
1004 346 -0.0061109650494418624
1004 347 0.003377485107906697
1004 348 0.0049144225314106697
1004 490 -0.0047676625017548371
1004 491 0.0098470663983301603
1004 492 -0.0044474646141015317
1004 493 0.004924425733933078
1004 494 -0.0054553648364196418
1004 495 -0.0081678540274369143
1004 751 -0.026371982513437475
1004 752 -0.067639021258239368
1004 753 0.013135372532766381
1004 775 0.020169700041807341
1004 776 -0.028504718700553665
1004 777 0.00045218787866052211
1004 844 -0.010802230147149004
1004 845 -0.063405549453815949
1004 846 -0.00070210038287537094
1004 847 0.015260802430458952
1004 848 -0.021878264140459791
1004 849 -0.0023334971438262195
1004 1003 0.00062722254309171936
1004 1004 0.20453443699553933
1005 43 0.0059014657420456184
1005 44 -0.014993716661935745
1005 45 -0.017582062926321942
1005 46 -0.0090788557040610007
1005 47 -0.0070265719357071963
1005 48 0.0064483789088054097
1005 211 -0.0016679569862254892
1005 212 0.012338990156766934
1005 213 -0.0045127364526306698
1005 343 -0.010661319502664133
1005 344 0.01896256349686562
1005 345 -0.031176826303591702
1005 346 0.014349210638731472
1005 347 0.0049144225314106714
1005 348 -0.0055706900782708174
1005 490 -0.015068274345193989
1005 491 -0.0044474646141015317
1005 492 0.00015627065732364172
1005 493 0.015478870379439158
1005 494 -0.008167854027436916
1005 495 -0.020407221994445071
1005 751 0.010241818046668344
1005 752 0.013135372532766379
1005 753 -0.031760571208533414
1005 775 -9.0070819810725419e-05
1005 776 0.00045218787866052184
1005 777 -0.01664531729320879
1005 844 0.00092877889445064626
1005 845 -0.00070210038287536985
1005 846 -0.020556509463230885
1005 847 0.0039214783064803558
1005 848 -0.0023334971438262195
1005 849 -0.0092858394031769716
1005 1003 -0.014255144649860253
1005 1004 -0.012132331830587142
1005 1005 0.15089312555728118
1006 49 -0.013921788390449592
1006 50 0.009727157905240905
1006 51 0.0095286317508405834
1006 52 -0.0082497886107888163
1006 53 -0.012129176718559873
1006 54 -0.0067805983718147627
1006 334 -0.002307662346500686
1006 335 0.0072094084219092441
1006 336 -0.011934575632777781
1006 337 -0.021753537908667082
1006 338 -0.00038179599334247022
1006 339 0.0013217912328671105
1006 340 1.3798789255635435e-06
1006 341 -0.0084554162804572706
1006 342 0.011298641879813012
1006 496 -0.00060499026818742032
1006 497 -0.00054915279933343344
1006 498 -0.01124686083326649
1006 499 -0.001017310737193482
1006 500 0.0021550118102332551
1006 501 0.0066413444213347019
1006 778 -0.0066906547485483161
1006 779 0.017535779207121328
1006 780 -0.0082626733313958048
1006 790 -0.023572263529624361
1006 791 -0.011877630600708018
1006 792 0.0058029339698859716
1006 847 -0.027528185844841197
1006 848 -0.0053960464918314747
1006 849 0.0029692661413192891
1006 859 -0.019721433685782115
1006 860 -0.012500097860744111
1006 861 2.1775810208145611e-05
1006 862 -0.0034616049412846961
1006 863 0.015390979528150387
1006 864 0.00020045731686670542
1006 865 -0.031227173409446935
1006 866 -0.010591960565600092
1006 867 0.015610761774119582
1006 1006 0.1600550145423891
1007 49 0.0097271579052409067
1007 50 -0.021989802927608486
1007 51 -0.0168295095880466
1007 52 -0.012129176718559872
1007 53 -0.010746964709957898
1007 54 -0.011466557532244882
1007 334 0.0072094084219092441
1007 335 0.015196265735537976
1007 336 0.00035774038566797417
1007 337 -0.00038179599334247066
1007 338 -0.036190477624893976
1007 339 0.02460567596888278
1007 340 -0.0084554162804572723
1007 341 0.0034511714059324771
1007 342 0.0070685668475030288
1007 496 -0.00054915279933343518
1007 497 0.0048035928134136591
1007 498 0.00089943500444393358
1007 499 0.0021550118102332556
1007 500 -0.00140993180947269
1007 501 -0.006338866875800318
1007 778 0.017535779207121325
1007 779 -0.01528618699280709
1007 780 0.0037363481490024215
1007 790 -0.01187763060070802
1007 791 -0.080639334815198721
1007 792 0.030711686481824256
1007 847 -0.0053960464918314747
1007 848 0.005137309372798121
1007 849 -0.0014339689808042229
1007 859 -0.01250009786074411
1007 860 -0.077395107545975325
1007 861 -0.00060469069274793081
1007 862 0.015390979528150385
1007 863 -0.027224811844567324
1007 864 -0.0031543481794378322
1007 865 -0.010591960565600094
1007 866 0.001143040172442903
1007 867 0.0031533280303512024
1007 1006 0.0098629404379216284
1007 1007 0.24115123877035635
1008 49 0.0095286317508405851
1008 50 -0.0168295095880466
1008 51 -0.021983848793631501
1008 52 -0.0067805983718147635
1008 53 -0.011466557532244884
1008 54 -0.0051271602812056165
1008 334 -0.011934575632777781
1008 335 0.00035774038566797461
1008 336 0.008065737561279377
1008 337 0.0013217912328671107
1008 338 0.024605675968882783
1008 339 -0.061142473585869953
1008 340 0.011298641879813014
1008 341 0.0070685668475030279
1008 342 -0.0083843629055143747
1008 496 -0.011246860833266488
1008 497 0.00089943500444393369
1008 498 -0.014638702733896954
1008 499 0.0066413444213347019
1008 500 -0.0063388668758003171
1008 501 -0.025132317533706088
1008 778 -0.0082626733313958065
1008 779 0.0037363481490024215
1008 780 0.0044686049786344844
1008 790 0.0058029339698859716
1008 791 0.030711686481824256
1008 792 -0.040871405030167139
1008 847 0.0029692661413192869
1008 848 -0.0014339689808042224
1008 849 0.001818916431484589
1008 859 2.1775810208145936e-05
1008 860 -0.00060469069274793103
1008 861 -0.016095342303558958
1008 862 0.00020045731686670515
1008 863 -0.0031543481794378317
1008 864 7.9329134678372566e-05
1008 865 0.015610761774119582
1008 866 0.003153328030351202
1008 867 -0.0082174183162460508
1008 1006 -0.015170896128000259
1008 1007 -0.030704839018593808
1008 1008 0.18716044337771981
1009 388 7.454961985703184e-05
1009 389 -0.0010804337015154993
1009 390 0.00048380802061045915
1009 442 0.0033942525361814325
1009 443 0.0065362538236276137
1009 444 0.0096460206661211807
1009 472 0.0036382514220095036
1009 473 -0.0055545525284398257
1009 474 -0.01057340054967508
1009 568 -0.0024202514793483067
1009 569 0.0034958854916070058
1009 570 0.0050334574836083954
1009 571 -0.0011458426039961376
1009 572 -0.011023175786891937
1009 573 -0.010084440929284408
1009 625 -0.0094626411331631272
1009 626 0.010392734950229465
1009 627 -0.010877362618996496
1009 661 -0.0137610113603893
1009 662 -0.0080734079717260081
1009 663 0.014998655297460767
1009 892 -0.059099913214231567
1009 893 0.005382925587487512
1009 894 0.011008357185945856
1009 898 -0.023199404344308772
1009 899 -0.0028324806919444363
1009 900 0.00013762746715843561
1009 901 -0.016895458125886706
1009 902 -0.0072734029096482109
1009 903 0.00036614358823151231
1009 910 -0.050081826968566154
1009 911 -0.00016846923317721156
1009 912 -0.0066224756565936536
1009 913 -0.01321666141786371
1009 914 0.015324298295005555
1009 915 0.0069009225258708472
1009 1009 0.1821759570697058
1010 388 -0.0010804337015154993
1010 389 -0.0049027971821313816
1010 390 0.015795885495811419
1010 442 0.0065362538236276128
1010 443 0.0073627157818443008
1010 444 -0.0097407597379950712
1010 472 -0.0055545525284398248
1010 473 0.0079941681694045766
1010 474 -0.0090851094326488673
1010 568 0.0034958854916070036
1010 569 -0.016586627127423786
1010 570 -0.016409801716886992
1010 571 -0.011023175786891937
1010 572 0.0043965469901367168
1010 573 -0.0048917562198192328
1010 625 0.010392734950229465
1010 626 -0.016312716601855119
1010 627 0.015199275243661509
1010 661 -0.0080734079717260081
1010 662 -0.0055524153976009589
1010 663 0.0085088257733141066
1010 892 0.0053829255874875102
1010 893 -0.018352450400538831
1010 894 0.0018250375808346703
1010 898 -0.0028324806919444358
1010 899 -0.084849932935655639
1010 900 -0.00072024050910709245
1010 901 -0.0072734029096482126
1010 902 -0.055505697409078764
1010 903 0.0093894974456354002
1010 910 -0.000168469233177212
1010 911 -0.013914842696411082
1010 912 0.0039280650810349137
1010 913 0.015324298295005555
1010 914 -0.012128826135167725
1010 915 -0.0047474993360461558
1010 1009 -0.0051261753246140181
1010 1010 0.20835287494447768
1011 388 0.00048380802061045959
1011 389 0.015795885495811419
1011 390 -0.016757512498035525
1011 442 0.0096460206661211825
1011 443 -0.0097407597379950712
1011 444 -0.0062221506236550504
1011 472 -0.010573400549675082
1011 473 -0.0090851094326488673
1011 474 -0.0040006423573838851
1011 568 0.0050334574836083954
1011 569 -0.016409801716886992
1011 570 -0.024718978005619362
1011 571 -0.010084440929284408
1011 572 -0.0048917562198192311
1011 573 0.005992113550953553
1011 625 -0.010877362618996498
1011 626 0.015199275243661509
1011 627 -0.019242332140966212
1011 661 0.014998655297460767
1011 662 0.0085088257733141066
1011 663 -0.013768964348114799
1011 892 0.011008357185945858
1011 893 0.001825037580834671
1011 894 -0.017668211135748128
1011 898 0.00013762746715843539
1011 899 -0.00072024050910709158
1011 900 -0.0213642847682529
1011 901 0.00036614358823151209
1011 902 0.0093894974456354002
1011 903 -0.017564942536324128
1011 910 -0.0066224756565936545
1011 911 0.0039280650810349146
1011 912 -0.014103700307410771
1011 913 0.0069009225258708489
1011 914 -0.0047474993360461567
1011 915 0.0016886194913926901
1011 1009 -0.010417312480457819
1011 1010 -0.0090514196677886072
1011 1011 0.14773098567916448
1012 256 -0.0032172066509211757
1012 257 -0.0093534664638756995
1012 258 -0.0072010665230525647
1012 259 -0.0040950660690409696
1012 260 0.0064585342204649693
1012 261 0.006392246172046645
1012 559 -0.025003829451959569
1012 560 -0.012208238768044305
1012 561 0.010983357770785004
1012 562 -0.029575189439112158
1012 563 0.012577534106349498
1012 564 -0.016629459645963549
1012 682 -0.0096527068961342073
1012 683 -0.0077706542056452691
1012 684 0.0039118156838064827
1012 718 -0.010570587764460498
1012 719 0.011874928745587838
1012 720 -0.0060720279753142927
1012 916 -0.047108323285579505
1012 917 0.0057768934369905722
1012 918 0.011821837863078758
1012 919 -0.027087056571195589
1012 920 -0.0092529514879187858
1012 921 -0.014562807453978383
1012 922 -0.00020717011870870325
1012 923 0.0028831318163550696
1012 924 0.0035115555385552156
1012 1012 0.15651713624711236
1013 256 -0.0093534664638757013
1013 257 0.0037542852925793431
1013 258 -0.0056937099088693616
1013 259 0.0064585342204649702
1013 260 -0.017688155825927483
1013 261 -0.015274038261462322
1013 559 -0.012208238768044301
1013 560 -0.0098613141483302035
1013 561 0.0047921886706302121
1013 562 0.0125775341063495
1013 563 -0.025003785503321701
1013 564 0.016060029076017612
1013 682 -0.0077706542056452683
1013 683 -0.03892785613393953
1013 684 0.017741080241348951
1013 718 0.011874928745587838
1013 719 -0.00031569361936994783
1013 720 0.005299116372495187
1013 916 0.0057768934369905704
1013 917 -0.01246213071371044
1013 918 -0.0014917474725796508
1013 919 -0.0092529514879187858
1013 920 -0.018235496887490446
1013 921 -0.0089941125656035938
1013 922 0.0028831318163550718
1013 923 -0.024215587155820301
1013 924 -0.0032662985340500762
1013 1012 -0.00098571140026388997
1013 1013 0.14295573469533071
1014 256 -0.0072010665230525656
1014 257 -0.0056937099088693616
1014 258 0.0015988508117323851
1014 259 0.006392246172046645
1014 260 -0.015274038261462324
1014 261 -0.017528527907251075
1014 559 0.010983357770785006
1014 560 0.004792188670630213
1014 561 -0.0063893264884817974
1014 562 -0.016629459645963549
1014 563 0.016060029076017612
1014 564 -0.044977640631910822
1014 682 0.0039118156838064818
1014 683 0.017741080241348951
1014 684 -0.021834541901894079
1014 718 -0.0060720279753142918
1014 719 0.005299116372495187
1014 720 0.0037235213210240117
1014 916 0.011821837863078756
1014 917 -0.0014917474725796506
1014 918 -0.021938033758065918
1014 919 -0.014562807453978383
1014 920 -0.0089941125656035938
1014 921 -0.050151523373620138
1014 922 0.0035115555385552165
1014 923 -0.0032662985340500775
1014 924 0.00066340741889831499
1014 1012 0.0078445485700366843
1014 1013 -0.0091725076179269525
1014 1014 0.15683381450956907
1015 73 -0.0071505698247578305
1015 74 0.0061964321920911156
1015 75 0.0065461712352733181
1015 76 0.0040553357077291897
1015 77 -0.0079793785098369874
1015 78 -0.0079210562175969709
1015 181 0.0093402689828699197
1015 182 0.0018572264923722005
1015 183 -0.0020346268039889764
1015 313 -0.008159717098354901
1015 314 0.0080244694130796514
1015 315 -0.012027452078034935
1015 316 0.0032680126886401703
1015 317 -0.005981146799045327
1015 318 0.010305684016525055
1015 520 0.006398755059665316
1015 521 -0.0062275929576177599
1015 522 -0.011131759001285083
1015 523 -0.010467424279335051
1015 524 0.0050722084750034653
1015 525 0.014842434003174461
1015 763 -0.032382966574910972
1015 764 -0.021617523238967543
1015 765 0.005521438868514349
1015 799 -0.012996077900486819
1015 800 0.018750436688724031
1015 801 0.00010232650535856513
1015 940 -0.036939298191731564
1015 941 -0.0021392763447953206
1015 942 -0.0077605225989430451
1015 943 -0.022712769545281137
1015 944 -0.0026584980957476867
1015 945 4.2706239972641341e-05
1015 955 -0.043736154423218487
1015 956 0.012916871897150288
1015 957 0.0042766698744130232
1015 1015 0.18009580667217739
1016 73 0.0061964321920911156
1016 74 -0.021724841409373755
1016 75 -0.017163393905766405
1016 76 -0.0079793785098369874
1016 77 0.012544886118071705
1016 78 -0.0061279298953946029
1016 181 0.0018572264923721995
1016 182 -0.0046533173388740986
1016 183 0.014022039476271978
1016 313 0.0080244694130796497
1016 314 -0.013630329059919713
1016 315 0.015254684323061976
1016 316 -0.0059811467990453253
1016 317 0.00065066265301486049
1016 318 0.0090941364992284564
1016 520 -0.0062275929576177599
1016 521 0.0066385872024709181
1016 522 -0.0078484421313353252
1016 523 0.0050722084750034636
1016 524 -0.00086284397546589672
1016 525 -0.0070623210294814154
1016 763 -0.021617523238967543
1016 764 -0.060746378870790915
1016 765 0.012239938567253975
1016 799 0.018750436688724028
1016 800 -0.034593850382855729
1016 801 0.0010447134932028339
1016 940 -0.0021392763447953206
1016 941 -0.0062044564072708391
1016 942 0.00024509608033004029
1016 943 -0.0026584980957476876
1016 944 -0.074239031618622414
1016 945 -0.0012507670900707786
1016 955 0.012916871897150288
1016 956 -0.0083103331240590959
1016 957 -0.003448142101959989
1016 1015 -0.0048254846434003093
1016 1016 0.20872111208935318
1017 73 0.006546171235273319
1017 74 -0.017163393905766409
1017 75 -0.023007998414087332
1017 76 -0.0079210562175969709
1017 77 -0.0061279298953946038
1017 78 0.0084703411565441762
1017 181 -0.0020346268039889764
1017 182 0.01402203947627198
1017 183 -0.0088940737082853719
1017 313 -0.012027452078034935
1017 314 0.015254684323061976
1017 315 -0.021662080596316441
1017 316 0.010305684016525055
1017 317 0.0090941364992284564
1017 318 -0.0091608286384951727
1017 520 -0.011131759001285085
1017 521 -0.0078484421313353269
1017 522 -0.0040464825114899334
1017 523 0.014842434003174459
1017 524 -0.0070623210294814154
1017 525 -0.014844354239987322
1017 763 0.0055214388685143473
1017 764 0.012239938567253972
1017 765 -0.0246107373835062
1017 799 0.00010232650535856491
1017 800 0.0010447134932028341
1017 801 -0.0054791141855052182
1017 940 -0.0077605225989430442
1017 941 0.00024509608033003991
1017 942 -0.011254378774415673
1017 943 4.2706239972641768e-05
1017 944 -0.0012507670900707773
1017 945 -0.016957222937291554
1017 955 0.0042766698744130232
1017 956 -0.0034481421019599899
1017 957 -0.0070238868020212298
1017 1015 -0.0082634489928984783
1017 1016 -0.0078167375525082863
1017 1017 0.14232904454085821
1018 268 -0.014809422909787404
1018 269 -0.0078095339102309709
1018 270 -0.0077747505860477966
1018 271 -0.0087660978219581062
1018 272 0.0083948636035417207
1018 273 0.0078603598835868989
1018 550 -0.020934294985708885
1018 551 -0.012493781453197629
1018 552 0.011137509592304468
1018 553 -0.018430726000463398
1018 554 0.008592601326454603
1018 555 -0.010294140440774563
1018 679 -0.016944629106628147
1018 680 -0.0086159016249354563
1018 681 0.010460556189550991
1018 703 -0.014329865431489147
1018 704 0.0076044785802949462
1018 705 -0.0062091810864793699
1018 964 -0.0096795743920254831
1018 965 0.0042416321779604254
1018 966 0.0053754746375070332
1018 967 -0.020682001531238451
1018 968 -0.0075980664540298525
1018 969 -0.010162220591177201
1018 1018 0.12457661217929902
1019 268 -0.0078095339102309735
1019 269 -0.034279376375763233
1019 270 -0.015989835050234023
1019 271 0.0083948636035417207
1019 272 -0.00037024573833450991
1019 273 -0.0051998855463546781
1019 550 -0.012493781453197628
1019 551 -0.036455929859032649
1019 552 0.017820354084119288
1019 553 0.008592601326454603
1019 554 -0.0043865794991567158
1019 555 0.0054256425666127815
1019 679 -0.0086159016249354563
1019 680 -0.0042174116607337844
1019 681 0.0049088959318220483
1019 703 0.0076044785802949462
1019 704 -0.035667401616109234
1019 705 0.01639455730356568
1019 964 0.0042416321779604254
1019 965 -0.027982639960734759
1019 966 -0.012633559166322382
1019 967 -0.0075980664540298525
1019 968 -0.002185923333852099
1019 969 -0.005104900826183166
1019 1018 0.0076837077541422119
1019 1019 0.14554550804371696
1020 268 -0.0077747505860477958
1020 269 -0.015989835050234026
1020 270 -0.034552306702939337
1020 271 0.0078603598835868989
1020 272 -0.0051998855463546772
1020 273 -0.0004609880751305807
1020 550 0.011137509592304466
1020 551 0.017820354084119288
1020 552 -0.03932446698667616
1020 553 -0.010294140440774561
1020 554 0.0054256425666127815
1020 555 -0.0053210412872399977
1020 679 0.010460556189550989
1020 680 0.0049088959318220483
1020 681 -0.0051604684278522229
1020 703 -0.0062091810864793708
1020 704 0.016394557303565677
1020 705 -0.038228444808330944
1020 964 0.005375474637507034
1020 965 -0.012633559166322384
1020 966 -0.028419634121548153
1020 967 -0.010162220591177201
1020 968 -0.005104900826183166
1020 969 -0.0022734652117246098
1020 1018 -0.00039360759847045871
1020 1019 -0.0056212692970255421
1020 1020 0.15374081562144204
1021 94 0.013992255666119995
1021 95 -0.0011857351002950928
1021 96 0.0010772697063596254
1021 274 0.017826980671818569
1021 275 -0.0015185070135607004
1021 276 -0.000694366790351018
1021 409 -0.013137328687647455
1021 410 0.0049760060835740026
1021 411 0.016991536681439552
1021 412 -0.028048798842469989
1021 413 -0.0062613998604710052
1021 414 -0.019409640536588404
1021 544 -0.013373805034215919
1021 545 -0.0017700730099621694
1021 546 0.016225314936620605
1021 547 -0.010541016943607007
1021 548 0.0050830572154567637
1021 549 -0.016549597497032682
1021 697 -0.032642271207718287
1021 698 -0.024537137725224242
1021 699 -0.00025778001441580773
1021 715 -0.04379626575982646
1021 716 0.029372046302873534
1021 717 0.00024263804517840544
1021 967 -0.028879068416108718
1021 968 0.0013879690934233927
1021 969 -0.0010952015116113345
1021 970 -0.007405564054461646
1021 971 0.014347067385192409
1021 972 0.00032965012441508415
1021 985 -0.028824033265978599
1021 986 -0.0034436970778018391
1021 987 -0.00053105723786667192
1021 1021 0.18257497809398104
1022 94 -0.0011857351002950932
1022 95 -0.0049821061268291288
1022 96 0.011721087331615376
1022 274 -0.0015185070135607013
1022 275 -0.00034593816375123366
1022 276 -0.011591182404540074
1022 409 0.0049760060835740035
1022 410 0.00063791076092583514
1022 411 -0.0027668474014400368
1022 412 -0.006261399860471006
1022 413 -0.025703774912211215
1022 414 -0.011365251413291116
1022 544 -0.0017700730099621676
1022 545 0.0017096223126281734
1022 546 0.0012847013875912083
1022 547 0.0050830572154567637
1022 548 -0.0030303020521629067
1022 549 0.0066022244896681223
1022 697 -0.024537137725224242
1022 698 -0.036293232889829066
1022 699 -0.00029621633190309807
1022 715 0.029372046302873538
1022 716 -0.053216772705222397
1022 717 -2.1489931176675234e-06
1022 967 0.0013879690934233933
1022 968 0.0067261765876459288
1022 969 -0.00011854014868084095
1022 970 0.014347067385192411
1022 971 -0.033077347992470772
1022 972 -0.0062516265749754376
1022 985 -0.0034436970778018404
1022 986 0.004474148262490733
1022 987 0.0010706600834043171
1022 1021 -0.0025727066867931693
1022 1022 0.18270763169412949
1023 94 0.0010772697063596256
1023 95 0.011721087331615376
1023 96 -0.0046304313377659532
1023 274 -0.00069436679035101887
1023 275 -0.011591182404540072
1023 276 -0.0025327342708982778
1023 409 0.016991536681439556
1023 410 -0.0027668474014400355
1023 411 -0.019924973991676333
1023 412 -0.019409640536588401
1023 413 -0.011365251413291116
1023 414 -0.037543174588316477
1023 544 0.016225314936620605
1023 545 0.0012847013875912088
1023 546 -0.020296831653682668
1023 547 -0.016549597497032682
1023 548 0.0066022244896681223
1023 549 -0.022063960478951268
1023 697 -0.00025778001441580838
1023 698 -0.00029621633190309894
1023 699 -0.014142213136592984
1023 715 0.00024263804517840528
1023 716 -2.1489931176671981e-06
1023 717 -0.018797912309492959
1023 967 -0.0010952015116113348
1023 968 -0.00011854014868084139
1023 969 0.0041899671720296832
1023 970 0.00032965012441508448
1023 971 -0.0062516265749754385
1023 972 -0.0055249990473408561
1023 985 -0.00053105723786667138
1023 986 0.0010706600834043177
1023 987 0.0027598393915889145
1023 1021 0.0033943668289600302
1023 1022 0.0059569188264967394
1023 1023 0.14585310058389639
1024 412 0.0035451159625399251
1024 413 0.0011287331536648626
1024 414 -0.0020765509344613715
1024 433 0.012897987315918551
1024 434 0.003186294333274782
1024 435 0.0028507205742854978
1024 541 -0.010700955209631673
1024 542 -0.0017903973094738487
1024 543 0.012014959168660307
1024 544 -0.0034916260596842127
1024 545 0.0053501609567116505
1024 546 0.0047584417414559283
1024 547 -0.006288557603104236
1024 548 -0.0091796257722450737
1024 549 -0.01047803152565919
1024 619 -0.033708074261652857
1024 620 0.0034699393324219259
1024 621 -0.007386935220612535
1024 970 -0.085115832282009724
1024 971 0.0023595805889318204
1024 972 0.011411088450004667
1024 976 0.0033937182994323179
1024 977 0.007001138013617297
1024 978 0.00056459698260802587
1024 979 -0.064166384402247451
1024 980 -0.030144760502342466
1024 981 -0.014000451858387873
1024 985 -0.022189153818065521
1024 986 0.019273371462807803
1024 987 -0.0030543346881035877
1024 1021 -0.00774606221988558
1024 1022 -0.013876889606411893
1024 1023 0.00027686726489260967
1024 1024 0.21356982427839041
1025 412 0.0011287331536648628
1025 413 0.0034844149779627897
1025 414 0.010662393370684892
1025 433 0.0031862943332747837
1025 434 0.0041403875173301064
1025 435 -0.0091072141863999846
1025 541 -0.0017903973094738493
1025 542 0.010282295682645375
1025 543 0.0023653624548828764
1025 544 0.0053501609567116505
1025 545 -0.020719780623143936
1025 546 -0.016986685933776252
1025 547 -0.0091796257722450737
1025 548 0.0042787275502793078
1025 549 -0.0045012990183159419
1025 619 0.0034699393324219251
1025 620 -0.048945587452073155
1025 621 0.02344730381133173
1025 970 0.0023595805889318183
1025 971 -0.022337697318073602
1025 972 0.0013603906560015009
1025 976 0.007001138013617297
1025 977 -0.020615063672010069
1025 978 -0.0015746159403832597
1025 979 -0.030144760502342462
1025 980 -0.047428955694447918
1025 981 -0.007292208691043087
1025 985 0.019273371462807803
1025 986 -0.012413941323105368
1025 987 0.004934946760623264
1025 1021 -0.013876889606411893
1025 1022 -0.039606014775343451
1025 1023 0.00575622114917251
1025 1024 0.013222455349043136
1025 1025 0.18988121512997996
1026 412 -0.0020765509344613715
1026 413 0.010662393370684892
1026 414 -0.011582207053778262
1026 433 0.0028507205742854978
1026 434 -0.0091072141863999829
1026 435 -0.014220472050557048
1026 541 0.012014959168660307
1026 542 0.0023653624548828764
1026 543 -0.0010845058823905028
1026 544 0.0047584417414559274
1026 545 -0.016986685933776256
1026 546 -0.018321637238850035
1026 547 -0.01047803152565919
1026 548 -0.0045012990183159428
1026 549 -0.00015176663326526532
1026 619 -0.0073869352206125359
1026 620 0.02344730381133173
1026 621 -0.055233912681894877
1026 970 0.011411088450004669
1026 971 0.0013603906560015016
1026 972 -0.025400307946054211
1026 976 0.0005645969826080263
1026 977 -0.0015746159403832595
1026 978 0.0035081582054534814
1026 979 -0.014000451858387872
1026 980 -0.0072922086910430879
1026 981 -0.029039537130191896
1026 985 -0.0030543346881035873
1026 986 0.004934946760623264
1026 987 -0.0018702441201766057
1026 1021 0.0002768672648926088
1026 1022 0.0057562211491725118
1026 1023 -0.0073456763327971811
1026 1024 0.0051196300453175241
1026 1025 -0.0090645944327782443
1026 1026 0.16074210886450241
1027 70 -0.018217937541331639
1027 71 0.0092548124585817015
1027 72 0.0094059559068730876
1027 73 -0.0011145448292178139
1027 74 -0.0086346115359470389
1027 75 -0.0077758666873898544
1027 316 -0.026991702818047462
1027 317 0.0089561107212826445
1027 318 -0.013802413466668691
1027 319 -0.0052908794926634778
1027 320 -0.0077887401595390041
1027 321 0.011220213845840963
1027 760 0.001017969277633013
1027 761 0.0093639926776571975
1027 762 -0.005864915540052449
1027 799 -0.0057066430334625938
1027 800 -0.0086088477797629549
1027 801 0.0039155666239666133
1027 928 -0.036484065526507375
1027 929 -0.00039153938250526715
1027 930 -0.0060938654742290349
1027 937 -0.009858116776822615
1027 938 -0.010478460833931717
1027 939 -0.0026740380955637857
1027 940 -0.010291442642804625
1027 941 0.0014985283103175809
1027 942 -0.0022832211472731787
1027 943 0.004953493449000812
1027 944 0.0096577315715632404
1027 945 0.003567339593879061
1027 1015 -0.028613201273005213
1027 1016 -0.0013887445690098168
1027 1017 0.0075014349495160781
1027 1027 0.136597071207229
1028 70 0.0092548124585817015
1028 71 -0.033108592431525322
1028 72 -0.016211281605463826
1028 73 -0.0086346115359470406
1028 74 0.0046493085882514532
1028 75 -0.00555690329682454
1028 316 0.0089561107212826428
1028 317 -0.036674458124094089
1028 318 0.020877210428269621
1028 319 -0.0077887401595390033
1028 320 -0.0034710016809920544
1028 321 0.0060597855210396089
1028 760 0.0093639926776571993
1028 761 -0.002390872318721148
1028 762 0.0068511242160489531
1028 799 -0.0086088477797629567
1028 800 -0.026923381111711185
1028 801 0.0148209128098418
1028 928 -0.00039153938250526801
1028 929 -0.0085231132510817324
1028 930 -0.0022515395605276281
1028 937 -0.010478460833931719
1028 938 -0.033585570764267901
1028 939 -0.0075192585406323393
1028 940 0.0014985283103175805
1028 941 -0.010342012828539016
1028 942 -0.001799593189888608
1028 943 0.0096577315715632404
1028 944 0.0018449685960468896
1028 945 -0.0051601238917256612
1028 1015 -0.0013887445690098166
1028 1016 -0.0035898658756782047
1028 1017 -0.0011828747328324531
1028 1027 -0.0014402314787065654
1028 1028 0.15211459120231233
1029 70 0.0094059559068730859
1029 71 -0.016211281605463822
1029 72 -0.033754738674554849
1029 73 -0.0077758666873898544
1029 74 -0.00555690329682454
1029 75 0.0050543745651535511
1029 316 -0.013802413466668689
1029 317 0.020877210428269625
1029 318 -0.05230827313284158
1029 319 0.011220213845840963
1029 320 0.0060597855210396106
1029 321 -0.0099124446654906308
1029 760 -0.005864915540052449
1029 761 0.0068511242160489531
1029 762 0.0034814163207419844
1029 799 0.0039155666239666142
1029 800 0.0148209128098418
1029 801 -0.0081476721083976224
1029 928 -0.006093865474229034
1029 929 -0.0022515395605276281
1029 930 -0.012073855197899303
1029 937 -0.0026740380955637857
1029 938 -0.0075192585406323401
1029 939 -0.0096949039591409762
1029 940 -0.0022832211472731795
1029 941 -0.0017995931898886082
1029 942 -0.059005813538006067
1029 943 0.0035673395938790619
1029 944 -0.0051601238917256612
1029 945 0.0069135650101890475
1029 1015 0.007501434949516079
1029 1016 -0.0011828747328324536
1029 1017 -0.003858227506000947
1029 1027 0.002883809491101186
1029 1028 -0.0089274581573049322
1029 1029 0.17330657288624737
1030 184 -0.0014826854597142457
1030 185 -0.0084945294085462392
1030 186 0.0081851506307687553
1030 187 -0.022835326511883341
1030 188 2.8805377197375106e-18
1030 189 -2.2010151134402994e-18
1030 190 0.0096216920204481027
1030 191 0.0085582628486358531
1030 192 -0.008510989016560706
1030 514 -0.031749137059101692
1030 515 -0.012896434147521675
1030 516 -0.0084879606029538458
1030 517 -0.019247824987075893
1030 518 0.0098420194057680759
1030 519 0.01252397307125416
1030 760 -0.0099888745977053835
1030 761 -0.0097173337220178499
1030 762 -0.0053156627735521352
1030 796 -0.028562330688020499
1030 797 0.0083851482490885469
1030 798 0.0084418998519379933
1030 907 -0.0057696388103653353
1030 908 -0.0065866202001554127
1030 909 0.01082006978375739
1030 925 -0.0079657878345020493
1030 926 -0.0074505483365328515
1030 927 0.0017617433960146218
1030 928 -0.010195984611212806
1030 929 0.0010883942365832251
1030 930 -0.004731648883085208
1030 937 0.0049355014151842786
1030 938 0.009352769256689656
1030 939 -0.0034688406412000006
1030 940 -0.023095044280011346
1030 941 -0.0003974964599854241
1030 942 -0.0051660709207526937
1030 1030 0.14633544140396024
1031 184 -0.0084945294085462392
1031 185 0.002531944684448804
1031 186 0.0062764209496767275
1031 187 1.9807478570384265e-18
1031 188 -0.051307496851182341
1031 189 0.016025641025641031
1031 190 0.0085582628486358531
1031 191 0.018578450811826179
1031 192 -0.0002831791116249243
1031 514 -0.012896434147521675
1031 515 -0.025903619984912481
1031 516 -0.0062222076782780756
1031 517 0.0098420194057680759
1031 518 -0.030415299067023525
1031 519 -0.021326009599746489
1031 760 -0.0097173337220178499
1031 761 -0.0344885800798235
1031 762 -0.016727195431543003
1031 796 0.0083851482490885469
1031 797 -0.034793978084438924
1031 798 -0.0064319785275124778
1031 907 -0.0065866202001554127
1031 908 0.0082382332658789883
1031 909 0.0024656240140783483
1031 925 -0.0074505483365328523
1031 926 -0.038703448630994119
1031 927 0.0080189714524260113
1031 928 0.0010883942365832254
1031 929 -0.0066536427813986259
1031 930 0.00011830487210586892
1031 937 0.0093527692566896577
1031 938 0.00089038186288811793
1031 939 0.005930162347357458
1031 940 -0.00039749645998542454
1031 941 0.0023613201884495221
1031 942 0.00098626279478494024
1031 1030 0.0083163682779940906
1031 1031 0.18966573466628189
1032 184 0.0081851506307687536
1032 185 0.0062764209496767283
1032 186 0.0024046172955016539
1032 187 -2.2776715951668136e-18
1032 188 0.016025641025641031
1032 189 -0.051451472452292688
1032 190 -0.0085109890165607043
1032 191 -0.00028317911162492344
1032 192 0.01876698620203824
1032 514 -0.0084879606029538458
1032 515 -0.0062222076782780748
1032 516 -0.032694008800130056
1032 517 0.01252397307125416
1032 518 -0.021326009599746489
1032 519 -0.044441180192398691
1032 760 -0.0053156627735521352
1032 761 -0.016727195431543
1032 762 -0.014028905121083717
1032 796 0.0084418998519379951
1032 797 -0.0064319785275124795
1032 798 -0.027723926455047482
1032 907 0.01082006978375739
1032 908 0.0024656240140783488
1032 909 0.00067536246639560496
1032 925 0.0017617433960146218
1032 926 0.0080189714524260096
1032 927 -0.0062240918833972462
1032 928 -0.0047316488830852097
1032 929 0.00011830487210586892
1032 930 -0.054003496238167817
1032 937 -0.0034688406412000015
1032 938 0.005930162347357458
1032 939 0.010258202861467827
1032 940 -0.0051660709207526929
1032 941 0.00098626279478494089
1032 942 0.00085722195758146966
1032 1030 -0.0060516638956283307
1032 1031 0.011169182892634582
1032 1032 0.19760469035953285
