*Heading
** MATLAB PDE Toolbox irregular C3D4 cantilever mesh.
** Dimensions: L=1, W=0.2, T=0.1. Hmax=0.05.
*Node
1, 0, 0, 0
2, 1, 0, 0
3, 1, 0.20000000000000001, 0
4, 0, 0.20000000000000001, 0
5, 0, 0, 0.10000000000000001
6, 1, 0, 0.10000000000000001
7, 1, 0.20000000000000001, 0.10000000000000001
8, 0, 0.20000000000000001, 0.10000000000000001
9, 0, 0.050000000000000003, 0
10, 0, 0.10000000000000001, 0
11, 0, 0.15000000000000002, 0
12, 0.94999999999999996, 0, 0
13, 0.90000000000000002, 0, 0
14, 0.85000000000000009, 0, 0
15, 0.80000000000000004, 0, 0
16, 0.75, 0, 0
17, 0.69999999999999996, 0, 0
18, 0.65000000000000002, 0, 0
19, 0.59999999999999998, 0, 0
20, 0.55000000000000004, 0, 0
21, 0.5, 0, 0
22, 0.44999999999999996, 0, 0
23, 0.40000000000000002, 0, 0
24, 0.34999999999999998, 0, 0
25, 0.30000000000000004, 0, 0
26, 0.25, 0, 0
27, 0.19999999999999996, 0, 0
28, 0.15000000000000002, 0, 0
29, 0.099999999999999978, 0, 0
30, 0.050000000000000044, 0, 0
31, 0.049999999999999989, 0.20000000000000001, 0
32, 0.099999999999999978, 0.20000000000000001, 0
33, 0.14999999999999997, 0.20000000000000001, 0
34, 0.20000000000000001, 0.20000000000000001, 0
35, 0.25000000000000006, 0.20000000000000001, 0
36, 0.29999999999999999, 0.20000000000000001, 0
37, 0.34999999999999998, 0.20000000000000001, 0
38, 0.40000000000000002, 0.20000000000000001, 0
39, 0.45000000000000001, 0.20000000000000001, 0
40, 0.5, 0.20000000000000001, 0
41, 0.55000000000000004, 0.20000000000000001, 0
42, 0.59999999999999998, 0.20000000000000001, 0
43, 0.65000000000000002, 0.20000000000000001, 0
44, 0.69999999999999996, 0.20000000000000001, 0
45, 0.75, 0.20000000000000001, 0
46, 0.80000000000000004, 0.20000000000000001, 0
47, 0.84999999999999998, 0.20000000000000001, 0
48, 0.90000000000000002, 0.20000000000000001, 0
49, 0.94999999999999996, 0.20000000000000001, 0
50, 1, 0.15000000000000002, 0
51, 1, 0.10000000000000001, 0
52, 1, 0.049999999999999989, 0
53, 1, 0.050000000000000003, 0.10000000000000001
54, 1, 0.10000000000000001, 0.10000000000000001
55, 1, 0.15000000000000002, 0.10000000000000001
56, 0.049999999999999989, 0, 0.10000000000000001
57, 0.099999999999999978, 0, 0.10000000000000001
58, 0.14999999999999997, 0, 0.10000000000000001
59, 0.20000000000000001, 0, 0.10000000000000001
60, 0.25000000000000006, 0, 0.10000000000000001
61, 0.29999999999999999, 0, 0.10000000000000001
62, 0.34999999999999998, 0, 0.10000000000000001
63, 0.40000000000000002, 0, 0.10000000000000001
64, 0.45000000000000001, 0, 0.10000000000000001
65, 0.5, 0, 0.10000000000000001
66, 0.55000000000000004, 0, 0.10000000000000001
67, 0.59999999999999998, 0, 0.10000000000000001
68, 0.65000000000000002, 0, 0.10000000000000001
69, 0.69999999999999996, 0, 0.10000000000000001
70, 0.75, 0, 0.10000000000000001
71, 0.80000000000000004, 0, 0.10000000000000001
72, 0.84999999999999998, 0, 0.10000000000000001
73, 0.90000000000000002, 0, 0.10000000000000001
74, 0.94999999999999996, 0, 0.10000000000000001
75, 0.94999999999999996, 0.20000000000000001, 0.10000000000000001
76, 0.90000000000000002, 0.20000000000000001, 0.10000000000000001
77, 0.85000000000000009, 0.20000000000000001, 0.10000000000000001
78, 0.80000000000000004, 0.20000000000000001, 0.10000000000000001
79, 0.75, 0.20000000000000001, 0.10000000000000001
80, 0.69999999999999996, 0.20000000000000001, 0.10000000000000001
81, 0.65000000000000002, 0.20000000000000001, 0.10000000000000001
82, 0.59999999999999998, 0.20000000000000001, 0.10000000000000001
83, 0.55000000000000004, 0.20000000000000001, 0.10000000000000001
84, 0.5, 0.20000000000000001, 0.10000000000000001
85, 0.44999999999999996, 0.20000000000000001, 0.10000000000000001
86, 0.40000000000000002, 0.20000000000000001, 0.10000000000000001
87, 0.34999999999999998, 0.20000000000000001, 0.10000000000000001
88, 0.30000000000000004, 0.20000000000000001, 0.10000000000000001
89, 0.25, 0.20000000000000001, 0.10000000000000001
90, 0.19999999999999996, 0.20000000000000001, 0.10000000000000001
91, 0.15000000000000002, 0.20000000000000001, 0.10000000000000001
92, 0.099999999999999978, 0.20000000000000001, 0.10000000000000001
93, 0.050000000000000044, 0.20000000000000001, 0.10000000000000001
94, 0, 0.15000000000000002, 0.10000000000000001
95, 0, 0.10000000000000001, 0.10000000000000001
96, 0, 0.049999999999999989, 0.10000000000000001
97, 1, 0.20000000000000001, 0.050000000000000003
98, 1, 0, 0.050000000000000003
99, 0, 0.20000000000000001, 0.050000000000000003
100, 0, 0, 0.050000000000000003
101, 0.077862895178255842, 0.041660379481294418, 0
102, 0.12428599429213472, 0.049071352836880862, 0
103, 0.17484229206262142, 0.050462867367098915, 0
104, 0.2251735740268519, 0.049762963012774192, 0
105, 0.27503145485328567, 0.049283115856284421, 0
106, 0.32485643972908501, 0.050297380324404006, 0
107, 0.37507385517247516, 0.050613302059531018, 0
108, 0.42492946651985053, 0.0504089907314903, 0
109, 0.47494982834857097, 0.0499990698229483, 0
110, 0.52502263532539517, 0.049914416597993949, 0
111, 0.57506525756879567, 0.049732063739005287, 0
112, 0.62517244214242818, 0.049759985709455043, 0
113, 0.67509942308950266, 0.049177987061767348, 0
114, 0.7246766406296874, 0.048867587571271437, 0
115, 0.77456489000315587, 0.049866897752940044, 0
116, 0.82512836705064463, 0.049855404480694587, 0
117, 0.87561623785580978, 0.04908578746731776, 0
118, 0.92213710482174405, 0.041660379481294418, 0
119, 0.95973217114348053, 0.075540743277137987, 0
120, 0.96149771977194975, 0.12049648117808011, 0
121, 0.92500000000000004, 0.15669872981077812, 0
122, 0.87610555618099262, 0.14956484431025543, 0
123, 0.82521782014087408, 0.15003168655503726, 0
124, 0.7745891750864603, 0.15024363751540049, 0
125, 0.72474790465147088, 0.15124707114813979, 0
126, 0.67515937198367415, 0.15058850649766858, 0
127, 0.62518953090460583, 0.15006061756044686, 0
128, 0.5750315186877154, 0.15005115075567391, 0
129, 0.52496768818225836, 0.1501870331167483, 0
130, 0.47493302056476949, 0.15041346336461517, 0
131, 0.42468629064260144, 0.15183605825131918, 0
132, 0.37370250141726002, 0.15238528753219258, 0
133, 0.32445465311669253, 0.15019736151096402, 0
134, 0.27482750345642559, 0.15174195471408058, 0
135, 0.22488190510823258, 0.15126797142812887, 0
136, 0.17410856330508573, 0.15047484764150248, 0
137, 0.12428599429213472, 0.1509286471631191, 0
138, 0.077862895178255842, 0.15833962051870565, 0
139, 0.040523141540410201, 0.12424584664654664, 0
140, 0.039620395193924907, 0.078475738796624742, 0
141, 0.96584936490538897, 0.03415063509461097, 0
142, 0.96708889282721044, 0.16533290847303769, 0
143, 0.033655526161052052, 0.034233619743787275, 0
144, 0.03322985304481374, 0.16610414013467042, 0
145, 0.093357422625612474, 0.099999999999999978, 0
146, 0.90918868234296546, 0.099089890492808724, 0
147, 0.74852905002927084, 0.10001099172159925, 0
148, 0.50004499565443594, 0.099744719155494307, 0
149, 0.1987294463548791, 0.10318619606217898, 0
150, 0.25, 0.10000000000000003, 0
151, 0.60056597445073379, 0.099378190608480077, 0
152, 0.65131780037293541, 0.099796794527352128, 0
153, 0.34999999999999998, 0.099999999999999978, 0
154, 0.40011208696381423, 0.10279533952103792, 0
155, 0.15000000000000002, 0.099999999999999978, 0
156, 0.80059289897661579, 0.10004036236268395, 0
157, 0.85225339713467163, 0.099614285389022061, 0
158, 0.44990784587748717, 0.10064120566128934, 0
159, 0.29963848792012937, 0.10268777925400606, 0
160, 0.55000000000000004, 0.10000000000000001, 0
161, 0.69999999999999996, 0.10000000000000001, 0
162, 0.92213710482174416, 0.041660379481294418, 0.10000000000000001
163, 0.87571400570786528, 0.049071352836880862, 0.10000000000000001
164, 0.82515770793737864, 0.050462867367098915, 0.10000000000000001
165, 0.7748264259731481, 0.049762963012774192, 0.10000000000000001
166, 0.72496854514671427, 0.049283115856284421, 0.10000000000000001
167, 0.67514356027091504, 0.050297380324404006, 0.10000000000000001
168, 0.62492614482752484, 0.050613302059531018, 0.10000000000000001
169, 0.57507053348014947, 0.0504089907314903, 0.10000000000000001
170, 0.52505017165142909, 0.0499990698229483, 0.10000000000000001
171, 0.47497736467460483, 0.049914416597993949, 0.10000000000000001
172, 0.42493474243120433, 0.049732063739005287, 0.10000000000000001
173, 0.37482755785757182, 0.049759985709455043, 0.10000000000000001
174, 0.32490057691049734, 0.049177987061767348, 0.10000000000000001
175, 0.2753233593703126, 0.048867587571271437, 0.10000000000000001
176, 0.22543510999684413, 0.049866897752940044, 0.10000000000000001
177, 0.17487163294935537, 0.049855404480694587, 0.10000000000000001
178, 0.12438376214419022, 0.04908578746731776, 0.10000000000000001
179, 0.077862895178255953, 0.041660379481294418, 0.10000000000000001
180, 0.040267828856519472, 0.075540743277137987, 0.10000000000000001
181, 0.038502280228050245, 0.12049648117808011, 0.10000000000000001
182, 0.074999999999999956, 0.15669872981077812, 0.10000000000000001
183, 0.12389444381900738, 0.14956484431025543, 0.10000000000000001
184, 0.17478217985912592, 0.15003168655503726, 0.10000000000000001
185, 0.2254108249135397, 0.15024363751540049, 0.10000000000000001
186, 0.27525209534852912, 0.15124707114813979, 0.10000000000000001
187, 0.32484062801632585, 0.15058850649766858, 0.10000000000000001
188, 0.37481046909539417, 0.15006061756044686, 0.10000000000000001
189, 0.4249684813122846, 0.15005115075567391, 0.10000000000000001
190, 0.47503231181774164, 0.1501870331167483, 0.10000000000000001
191, 0.52506697943523051, 0.15041346336461517, 0.10000000000000001
192, 0.57531370935739856, 0.15183605825131918, 0.10000000000000001
193, 0.62629749858273998, 0.15238528753219258, 0.10000000000000001
194, 0.67554534688330747, 0.15019736151096402, 0.10000000000000001
195, 0.72517249654357441, 0.15174195471408058, 0.10000000000000001
196, 0.77511809489176742, 0.15126797142812887, 0.10000000000000001
197, 0.82589143669491427, 0.15047484764150248, 0.10000000000000001
198, 0.87571400570786528, 0.1509286471631191, 0.10000000000000001
199, 0.92213710482174416, 0.15833962051870565, 0.10000000000000001
200, 0.95947685845958985, 0.12424584664654664, 0.10000000000000001
201, 0.96037960480607509, 0.078475738796624742, 0.10000000000000001
202, 0.034150635094611026, 0.03415063509461097, 0.10000000000000001
203, 0.032911107172789555, 0.16533290847303769, 0.10000000000000001
204, 0.96634447383894795, 0.034233619743787275, 0.10000000000000001
205, 0.96677014695518626, 0.16610414013467042, 0.10000000000000001
206, 0.90664257737438758, 0.099999999999999978, 0.10000000000000001
207, 0.09081131765703454, 0.099089890492808724, 0.10000000000000001
208, 0.25147094997072916, 0.10001099172159925, 0.10000000000000001
209, 0.49995500434556406, 0.099744719155494307, 0.10000000000000001
210, 0.8012705536451209, 0.10318619606217898, 0.10000000000000001
211, 0.75, 0.10000000000000003, 0.10000000000000001
212, 0.39943402554926621, 0.099378190608480077, 0.10000000000000001
213, 0.34868219962706459, 0.099796794527352128, 0.10000000000000001
214, 0.65000000000000002, 0.099999999999999978, 0.10000000000000001
215, 0.59988791303618583, 0.10279533952103792, 0.10000000000000001
216, 0.84999999999999998, 0.099999999999999978, 0.10000000000000001
217, 0.19940710102338421, 0.10004036236268395, 0.10000000000000001
218, 0.14774660286532837, 0.099614285389022061, 0.10000000000000001
219, 0.55009215412251278, 0.10064120566128934, 0.10000000000000001
220, 0.70036151207987063, 0.10268777925400606, 0.10000000000000001
221, 0.44999999999999996, 0.10000000000000001, 0.10000000000000001
222, 0.30000000000000004, 0.10000000000000001, 0.10000000000000001
223, 1, 0.080839900097917486, 0.049999999999999989
224, 1, 0.12155236974053855, 0.049999999999999996
225, 1, 0.16250000000000001, 0.050000000000000003
226, 1, 0.037500000000000006, 0.050000000000000003
227, 0.22499999999999998, 0.20000000000000001, 0.050000000000000003
228, 0.375, 0.20000000000000001, 0.049999999999999996
229, 0.52500000000000002, 0.20000000000000001, 0.050000000000000003
230, 0.625, 0.20000000000000001, 0.050000000000000003
231, 0.72499999999999998, 0.20000000000000001, 0.050000000000000003
232, 0.77500000000000002, 0.20000000000000001, 0.050000000000000003
233, 0.12634898316287235, 0.20000000000000001, 0.050000000000000003
234, 0.47499999999999998, 0.20000000000000001, 0.049999999999999989
235, 0.17499999999999999, 0.20000000000000001, 0.050000000000000031
236, 0.27500000000000002, 0.20000000000000001, 0.049999999999999975
237, 0.82499999999999996, 0.20000000000000001, 0.049999999999999982
238, 0.87365101683712765, 0.20000000000000001, 0.050000000000000003
239, 0.080839900097917472, 0.20000000000000001, 0.049999999999999982
240, 0.32499999999999996, 0.20000000000000001, 0.050000000000000017
241, 0.42500000000000004, 0.20000000000000001, 0.05000000000000001
242, 0.57499999999999996, 0.20000000000000001, 0.050000000000000003
243, 0.67500000000000004, 0.20000000000000001, 0.050000000000000003
244, 0.91916009990208258, 0.20000000000000001, 0.05000000000000001
245, 0.037499999999999978, 0.20000000000000001, 0.050000000000000003
246, 0.96250000000000002, 0.20000000000000001, 0.050000000000000003
247, 0, 0.11916009990208253, 0.049999999999999989
248, 0, 0.078447630259461457, 0.049999999999999996
249, 0, 0.037500000000000006, 0.050000000000000003
250, 0, 0.16250000000000001, 0.050000000000000003
251, 0.77500000000000002, 0, 0.050000000000000003
252, 0.625, 0, 0.049999999999999996
253, 0.47499999999999998, 0, 0.050000000000000003
254, 0.375, 0, 0.050000000000000003
255, 0.27500000000000002, 0, 0.050000000000000003
256, 0.22499999999999998, 0, 0.050000000000000003
257, 0.87365101683712765, 0, 0.050000000000000003
258, 0.52500000000000002, 0, 0.049999999999999989
259, 0.82499999999999996, 0, 0.050000000000000031
260, 0.72499999999999998, 0, 0.049999999999999975
261, 0.17500000000000004, 0, 0.049999999999999982
262, 0.12634898316287235, 0, 0.050000000000000003
263, 0.91916009990208258, 0, 0.049999999999999982
264, 0.67500000000000004, 0, 0.050000000000000017
265, 0.57499999999999996, 0, 0.05000000000000001
266, 0.42500000000000004, 0, 0.050000000000000003
267, 0.32499999999999996, 0, 0.050000000000000003
268, 0.080839900097917416, 0, 0.05000000000000001
269, 0.96250000000000002, 0, 0.050000000000000003
270, 0.037499999999999978, 0, 0.050000000000000003
271, 0.94757046813403634, 0.14648533043756201, 0.062749890836790403
272, 0.96000602418650749, 0.10138261007272374, 0.066370398725738688
273, 0.89657723475184625, 0.14256470834571069, 0.045270359229098805
274, 0.94993280419849757, 0.052103258790362046, 0.050857762074534942
275, 0.85280407930495628, 0.15460500745923933, 0.060406937437055691
276, 0.86768645516024145, 0.088624973719301808, 0.054326724792460535
277, 0.79999419832982221, 0.15527657246519547, 0.067058964505488039
278, 0.84102647574777178, 0.12123719006132738, 0.037035943352226222
279, 0.85023611665730769, 0.032715883972564058, 0.054535169334414796
280, 0.75476860712671634, 0.15767191775823486, 0.034445358170642933
281, 0.77457037469744894, 0.11676499719989455, 0.045039888259434745
282, 0.81309852593949716, 0.075682876986497449, 0.052170027787940471
283, 0.74704410663606546, 0.049721898765395574, 0.043888171891994905
284, 0.72437783639828757, 0.11813567384882447, 0.045527002747392104
285, 0.699938601385663, 0.16769167097466151, 0.044794519459349084
286, 0.67550905001980421, 0.11733383167658448, 0.045152640557273326
287, 0.69951035705784093, 0.073287407015464129, 0.046914451738605492
288, 0.64515794999764697, 0.078788580867191399, 0.045256077317340923
289, 0.63257014840710468, 0.035133980653548058, 0.064738072760537987
290, 0.64045866168629972, 0.16308243156880453, 0.043916253342176803
291, 0.62570173568461696, 0.1168086381985917, 0.045211664890440949
292, 0.59293223793273564, 0.032198108597517289, 0.031414911800506838
293, 0.59740784219724574, 0.08155598772587673, 0.050312608101763336
294, 0.53255598117482228, 0.033496295060699413, 0.040730580198180981
295, 0.5752286244659377, 0.11688766009298303, 0.045125926958608571
296, 0.58280312992981276, 0.16492139674220035, 0.035105055566626589
297, 0.53278945078467732, 0.16502984239153712, 0.035067614175536325
298, 0.52498792242671743, 0.11708803772538078, 0.044965449127595529
299, 0.48608933365682039, 0.033060629611325915, 0.039588554746516708
300, 0.47496943461435281, 0.083014896813982719, 0.045044198707575769
301, 0.48274360775650688, 0.16505001256097207, 0.035077038670209254
302, 0.5499940107638005, 0.067387971698389115, 0.054854587121241645
303, 0.4391787413824273, 0.037359833778407375, 0.04345741381480011
304, 0.4292097161255311, 0.12313479681079287, 0.042405499737312252
305, 0.44743983082588989, 0.15786659976494488, 0.061836940269497542
306, 0.39947091132385448, 0.16836926156513632, 0.044749263024403081
307, 0.34999999999999998, 0.15533621460400182, 0.032941997810288212
308, 0.37429826431538304, 0.1168086381985917, 0.054788335109559057
309, 0.39976000230626774, 0.066593033239542923, 0.054975739937358568
310, 0.38244758414757901, 0.035019548334210462, 0.035287452415599649
311, 0.30000000000000004, 0.15537971364712067, 0.067071992492934912
312, 0.32499831862147494, 0.11832758726101474, 0.045854071857527538
313, 0.3537135702425106, 0.068513657675105075, 0.046714662938592728
314, 0.33940287158553284, 0.029850996027477705, 0.062107656590603008
315, 0.3007432441071447, 0.074556087010154065, 0.048828456382398057
316, 0.27454557604181995, 0.1195849068078894, 0.046015243149934743
317, 0.24988987383138972, 0.16804077491593714, 0.044729728388293422
318, 0.22425105134810658, 0.083490596434883449, 0.045843736281977028
319, 0.25008332642671743, 0.032511637144994332, 0.045211975305291537
320, 0.19996860512081227, 0.032900853261757304, 0.045343448930039984
321, 0.17499569592498881, 0.083173185657273732, 0.04659090025444973
322, 0.19915464608305961, 0.13532990162780864, 0.046256486696186455
323, 0.14897391863849957, 0.16247634217348994, 0.051612995733667157
324, 0.12267850016126636, 0.11733415652348325, 0.046995716513301075
325, 0.14976388334269236, 0.032715883972564072, 0.04546483066558521
326, 0.10487922202746625, 0.064557571768193975, 0.048652154779325288
327, 0.052716086390224515, 0.10067260913624909, 0.046160130291377749
328, 0.046739041573874374, 0.046587032249821421, 0.049352871282693431
329, 0.046280899331037129, 0.15200177857306979, 0.048294185366506572
330, 0.95701705444611096, 0.11846623760856692, 0.029873193174998106
331, 0.91802306857027727, 0.083027775895698513, 0.0520484844604771
332, 0.89983464891562714, 0.042307076484169204, 0.048079942584893176
333, 0.81649495733724831, 0.16507742372496509, 0.034803792055336014
334, 0.73362533226099791, 0.16550214184725479, 0.065334978843406541
335, 0.79039982681530163, 0.03219194983385959, 0.042259283624220274
336, 0.68394802052105952, 0.034047650181258299, 0.037405911447489247
337, 0.47710093391491398, 0.12091348420412004, 0.054425913158282768
338, 0.36647188677358511, 0.16531012717990889, 0.065245308932174603
339, 0.29746328191120147, 0.030954050880712375, 0.043772633696847994
340, 0.18799118657727715, 0.17298738009311052, 0.075238697662546816
341, 0.097584933759720216, 0.16362654835280976, 0.044670891414233756
342, 0.085617455876832005, 0.11768544625205679, 0.063836023897439365
343, 0.34328148753991239, 0.032226629257033304, 0.02659034420875394
344, 0.39378403455029987, 0.027273365108234263, 0.073455590378262464
*Element, type=C3D4
1, 344, 64, 63, 266
2, 224, 271, 55, 225
3, 30, 328, 268, 101
4, 278, 157, 273, 276
5, 249, 270, 1, 143
6, 53, 201, 54, 223
7, 247, 94, 95, 329
8, 244, 271, 75, 199
9, 182, 207, 342, 183
10, 53, 274, 204, 201
11, 55, 7, 225, 205
12, 262, 28, 29, 102
13, 285, 231, 125, 44
14, 278, 210, 277, 281
15, 225, 330, 50, 224
16, 326, 101, 102, 29
17, 120, 330, 119, 51
18, 252, 292, 18, 19
19, 280, 196, 281, 277
20, 142, 50, 3, 225
21, 183, 233, 341, 92
22, 31, 329, 239, 245
23, 341, 32, 239, 233
24, 315, 153, 106, 159
25, 12, 274, 141, 118
26, 323, 233, 235, 33
27, 130, 39, 301, 40
28, 281, 156, 147, 124
29, 272, 223, 54, 201
30, 326, 140, 328, 327
31, 9, 248, 140, 10
32, 320, 104, 319, 256
33, 225, 271, 330, 224
34, 269, 12, 263, 274
35, 6, 226, 204, 53
36, 263, 274, 12, 118
37, 285, 125, 126, 44
38, 325, 320, 261, 103
39, 330, 51, 224, 223
40, 278, 281, 123, 156
41, 274, 141, 226, 269
42, 309, 172, 212, 173
43, 272, 54, 223, 224
44, 273, 238, 275, 198
45, 340, 91, 323, 184
46, 320, 261, 256, 59
47, 272, 201, 200, 206
48, 256, 26, 27, 104
49, 278, 123, 157, 156
50, 317, 135, 316, 322
51, 162, 204, 74, 274
52, 200, 55, 54, 224
53, 115, 283, 335, 282
54, 120, 51, 50, 224
55, 247, 95, 327, 329
56, 271, 199, 273, 206
57, 195, 79, 334, 80
58, 123, 47, 333, 122
59, 344, 63, 62, 254
60, 249, 9, 248, 328
61, 57, 326, 178, 262
62, 326, 207, 179, 178
63, 179, 57, 268, 326
64, 319, 104, 105, 26
65, 286, 290, 285, 126
66, 260, 336, 283, 17
67, 284, 287, 161, 147
68, 307, 240, 228, 37
69, 34, 135, 35, 227
70, 319, 255, 256, 26
71, 302, 169, 170, 66
72, 292, 289, 265, 252
73, 78, 77, 197, 237
74, 295, 296, 291, 128
75, 277, 237, 197, 275
76, 287, 113, 161, 114
77, 175, 255, 61, 60
78, 289, 68, 167, 168
79, 162, 332, 163, 331
80, 238, 244, 76, 273
81, 294, 20, 110, 111
82, 344, 62, 314, 254
83, 334, 280, 231, 232
84, 305, 301, 234, 190
85, 308, 304, 212, 309
86, 280, 45, 125, 231
87, 333, 275, 47, 237
88, 90, 185, 227, 89
89, 293, 291, 151, 295
90, 70, 251, 165, 71
91, 253, 22, 299, 21
92, 344, 63, 173, 62
93, 294, 258, 20, 265
94, 307, 228, 132, 37
95, 308, 132, 153, 307
96, 254, 24, 310, 23
97, 297, 129, 41, 128
98, 295, 219, 215, 192
99, 290, 43, 42, 230
100, 66, 265, 169, 67
101, 299, 65, 171, 253
102, 288, 289, 112, 336
103, 188, 306, 338, 86
104, 309, 158, 108, 154
105, 312, 313, 315, 153
106, 296, 242, 41, 297
107, 290, 230, 193, 81
108, 308, 153, 313, 312
109, 291, 193, 215, 214
110, 18, 19, 292, 112
111, 130, 337, 298, 301
112, 84, 83, 191, 229
113, 142, 50, 225, 330
114, 273, 275, 276, 198
115, 15, 116, 259, 14
116, 277, 197, 196, 210
117, 303, 253, 299, 171
118, 297, 298, 191, 301
119, 205, 75, 7, 246
120, 200, 55, 224, 271
121, 246, 75, 244, 271
122, 97, 225, 7, 246
123, 310, 23, 108, 303
124, 7, 246, 225, 205
125, 76, 198, 273, 199
126, 299, 65, 253, 258
127, 3, 246, 225, 97
128, 142, 225, 3, 246
129, 271, 225, 142, 246
130, 273, 122, 48, 121
131, 49, 3, 246, 142
132, 273, 122, 238, 48
133, 271, 205, 225, 246
134, 75, 271, 205, 199
135, 121, 49, 48, 244
136, 121, 246, 49, 244
137, 121, 246, 142, 49
138, 332, 331, 118, 117
139, 271, 142, 330, 121
140, 275, 237, 238, 47
141, 273, 121, 146, 122
142, 274, 272, 201, 223
143, 278, 197, 210, 216
144, 277, 78, 237, 232
145, 279, 163, 276, 164
146, 331, 330, 274, 119
147, 206, 331, 272, 201
148, 271, 206, 272, 200
149, 275, 77, 237, 197
150, 76, 244, 75, 199
151, 273, 146, 276, 157
152, 278, 273, 275, 276
153, 278, 157, 282, 156
154, 238, 273, 76, 198
155, 76, 273, 244, 199
156, 275, 216, 198, 197
157, 77, 76, 198, 238
158, 271, 142, 121, 246
159, 246, 205, 75, 271
160, 269, 141, 12, 274
161, 269, 226, 2, 141
162, 330, 146, 121, 120
163, 226, 53, 223, 274
164, 223, 274, 53, 201
165, 274, 226, 119, 223
166, 120, 224, 330, 51
167, 273, 271, 206, 331
168, 342, 183, 207, 324
169, 279, 276, 282, 164
170, 271, 121, 330, 273
171, 98, 2, 269, 226
172, 119, 52, 51, 223
173, 327, 145, 342, 326
174, 274, 201, 162, 204
175, 119, 52, 223, 226
176, 119, 141, 52, 226
177, 272, 54, 200, 201
178, 271, 199, 206, 200
179, 272, 200, 54, 224
180, 50, 330, 120, 224
181, 47, 238, 122, 48
182, 275, 238, 122, 47
183, 276, 216, 163, 206
184, 281, 196, 211, 210
185, 276, 216, 164, 163
186, 276, 117, 116, 157
187, 276, 198, 216, 206
188, 344, 173, 313, 314
189, 123, 122, 333, 278
190, 279, 14, 257, 259
191, 164, 72, 71, 259
192, 273, 121, 330, 146
193, 273, 276, 206, 198
194, 73, 162, 74, 263
195, 275, 198, 216, 276
196, 269, 6, 204, 74
197, 2, 226, 52, 141
198, 263, 274, 74, 269
199, 162, 74, 263, 274
200, 305, 189, 221, 190
201, 6, 269, 226, 98
202, 337, 190, 221, 209
203, 204, 226, 6, 269
204, 12, 141, 269, 2
205, 335, 116, 259, 15
206, 119, 118, 331, 146
207, 332, 274, 162, 263
208, 13, 118, 263, 12
209, 279, 259, 72, 164
210, 290, 243, 230, 81
211, 123, 46, 333, 47
212, 275, 198, 77, 197
213, 279, 282, 259, 164
214, 280, 124, 281, 147
215, 275, 238, 237, 77
216, 333, 47, 46, 237
217, 278, 275, 197, 216
218, 280, 232, 45, 231
219, 287, 214, 167, 220
220, 280, 46, 45, 232
221, 280, 125, 124, 147
222, 334, 285, 284, 195
223, 15, 16, 335, 115
224, 282, 157, 116, 156
225, 282, 165, 210, 211
226, 277, 196, 197, 78
227, 285, 126, 243, 44
228, 257, 14, 117, 13
229, 331, 273, 330, 146
230, 279, 163, 72, 257
231, 263, 332, 73, 162
232, 271, 200, 205, 199
233, 257, 73, 263, 332
234, 279, 72, 259, 257
235, 257, 332, 13, 117
236, 13, 332, 263, 118
237, 195, 80, 334, 285
238, 72, 257, 163, 73
239, 335, 164, 165, 71
240, 278, 216, 210, 282
241, 284, 195, 211, 196
242, 283, 156, 282, 115
243, 283, 147, 156, 115
244, 281, 123, 156, 124
245, 257, 163, 73, 332
246, 277, 196, 78, 232
247, 285, 243, 80, 231
248, 288, 112, 152, 113
249, 284, 281, 283, 147
250, 127, 296, 290, 42
251, 335, 283, 165, 282
252, 288, 287, 214, 167
253, 284, 286, 161, 287
254, 283, 211, 282, 281
255, 310, 108, 309, 303
256, 335, 15, 115, 116
257, 279, 116, 14, 259
258, 13, 117, 332, 118
259, 281, 210, 211, 282
260, 282, 164, 210, 165
261, 276, 146, 117, 157
262, 162, 331, 163, 206
263, 284, 161, 125, 147
264, 279, 72, 163, 164
265, 280, 196, 334, 284
266, 294, 302, 170, 66
267, 335, 15, 259, 251
268, 282, 216, 164, 276
269, 282, 116, 157, 276
270, 282, 116, 115, 156
271, 142, 120, 50, 330
272, 335, 115, 282, 116
273, 288, 286, 291, 214
274, 282, 164, 216, 210
275, 260, 283, 16, 17
276, 335, 16, 283, 115
277, 283, 156, 281, 282
278, 260, 70, 283, 166
279, 113, 17, 336, 18
280, 287, 147, 283, 114
281, 69, 70, 260, 166
282, 287, 161, 147, 114
283, 275, 198, 238, 77
284, 277, 197, 237, 78
285, 283, 115, 114, 147
286, 283, 251, 260, 16
287, 283, 211, 165, 282
288, 333, 232, 280, 277
289, 79, 232, 78, 196
290, 44, 231, 125, 45
291, 286, 194, 214, 220
292, 285, 243, 194, 80
293, 290, 43, 230, 243
294, 291, 127, 126, 152
295, 286, 291, 290, 126
296, 292, 169, 265, 289
297, 111, 292, 20, 19
298, 288, 286, 152, 291
299, 287, 113, 336, 288
300, 18, 292, 289, 112
301, 289, 252, 18, 264
302, 68, 167, 69, 264
303, 287, 166, 220, 167
304, 288, 291, 293, 214
305, 280, 124, 125, 45
306, 74, 274, 204, 269
307, 283, 17, 336, 114
308, 284, 286, 194, 285
309, 286, 194, 285, 290
310, 273, 121, 48, 244
311, 287, 288, 336, 167
312, 283, 165, 211, 166
313, 243, 126, 43, 44
314, 288, 113, 152, 287
315, 292, 169, 302, 265
316, 284, 286, 126, 161
317, 298, 209, 219, 191
318, 81, 243, 80, 194
319, 193, 230, 82, 81
320, 290, 243, 81, 194
321, 41, 42, 296, 128
322, 127, 42, 290, 43
323, 288, 336, 112, 113
324, 293, 289, 168, 169
325, 321, 318, 320, 103
326, 112, 336, 289, 18
327, 336, 167, 289, 264
328, 288, 168, 289, 167
329, 168, 67, 289, 68
330, 289, 68, 67, 252
331, 294, 110, 302, 111
332, 303, 22, 253, 266
333, 300, 209, 171, 170
334, 300, 109, 108, 158
335, 274, 141, 118, 119
336, 329, 181, 342, 182
337, 300, 110, 299, 109
338, 312, 315, 316, 159
339, 289, 167, 68, 264
340, 295, 302, 219, 298
341, 337, 300, 148, 298
342, 337, 191, 301, 190
343, 290, 285, 243, 194
344, 286, 291, 194, 290
345, 290, 43, 243, 126
346, 285, 194, 195, 80
347, 334, 285, 80, 231
348, 285, 243, 231, 44
349, 290, 81, 193, 194
350, 124, 280, 333, 46
351, 290, 285, 126, 243
352, 292, 265, 19, 252
353, 296, 42, 242, 230
354, 242, 296, 41, 42
355, 292, 302, 111, 294
356, 321, 155, 149, 103
357, 321, 102, 155, 103
358, 302, 160, 111, 110
359, 292, 112, 111, 293
360, 302, 170, 169, 219
361, 301, 234, 229, 40
362, 296, 295, 192, 297
363, 331, 274, 332, 118
364, 305, 39, 234, 301
365, 337, 301, 304, 305
366, 291, 152, 151, 127
367, 296, 192, 295, 291
368, 295, 128, 151, 160
369, 23, 22, 303, 266
370, 294, 258, 265, 66
371, 302, 265, 169, 66
372, 344, 173, 314, 62
373, 298, 129, 148, 130
374, 299, 294, 258, 21
375, 292, 19, 111, 112
376, 292, 302, 169, 293
377, 296, 128, 295, 297
378, 170, 299, 294, 65
379, 303, 22, 108, 109
380, 294, 265, 302, 66
381, 293, 219, 169, 215
382, 21, 20, 294, 258
383, 302, 110, 148, 160
384, 292, 302, 294, 265
385, 337, 221, 305, 304
386, 305, 85, 241, 189
387, 301, 130, 129, 298
388, 297, 242, 41, 229
389, 301, 229, 234, 191
390, 344, 303, 309, 172
391, 241, 234, 305, 39
392, 108, 303, 23, 22
393, 293, 151, 111, 160
394, 192, 82, 242, 83
395, 295, 129, 297, 128
396, 289, 168, 169, 67
397, 290, 127, 43, 126
398, 40, 41, 297, 129
399, 334, 80, 79, 231
400, 295, 160, 129, 128
401, 267, 61, 339, 255
402, 229, 242, 192, 297
403, 291, 192, 215, 193
404, 133, 240, 37, 36
405, 305, 131, 39, 301
406, 300, 110, 148, 302
407, 298, 160, 302, 148
408, 299, 109, 110, 21
409, 190, 84, 234, 85
410, 306, 228, 241, 38
411, 307, 37, 132, 133
412, 304, 158, 131, 130
413, 295, 192, 191, 219
414, 241, 39, 131, 38
415, 337, 191, 298, 301
416, 309, 304, 158, 154
417, 304, 131, 301, 130
418, 304, 221, 189, 212
419, 305, 85, 189, 190
420, 188, 187, 338, 308
421, 315, 208, 222, 316
422, 301, 39, 130, 131
423, 291, 126, 127, 290
424, 257, 263, 13, 332
425, 301, 40, 39, 234
426, 314, 267, 254, 62
427, 308, 213, 212, 188
428, 343, 267, 314, 339
429, 110, 294, 21, 20
430, 302, 170, 219, 209
431, 298, 219, 209, 302
432, 296, 127, 290, 291
433, 293, 111, 302, 160
434, 274, 269, 226, 204
435, 299, 65, 170, 171
436, 300, 171, 299, 170
437, 253, 64, 65, 171
438, 289, 68, 252, 264
439, 171, 172, 303, 64
440, 296, 297, 192, 242
441, 280, 196, 277, 232
442, 300, 209, 302, 298
443, 321, 177, 218, 178
444, 190, 191, 234, 84
445, 86, 189, 241, 85
446, 312, 311, 187, 307
447, 326, 180, 179, 207
448, 306, 228, 38, 132
449, 306, 132, 38, 131
450, 344, 172, 64, 266
451, 304, 132, 131, 154
452, 304, 131, 158, 154
453, 310, 108, 23, 107
454, 338, 308, 187, 307
455, 137, 32, 341, 233
456, 309, 221, 172, 300
457, 306, 131, 304, 132
458, 313, 106, 153, 107
459, 306, 86, 241, 228
460, 87, 86, 338, 228
461, 37, 38, 228, 132
462, 317, 227, 135, 322
463, 188, 338, 87, 86
464, 311, 187, 88, 186
465, 311, 88, 187, 240
466, 312, 313, 213, 315
467, 343, 339, 315, 106
468, 311, 316, 186, 317
469, 332, 118, 274, 263
470, 309, 221, 212, 172
471, 148, 298, 130, 337
472, 338, 86, 306, 228
473, 344, 63, 254, 266
474, 299, 258, 253, 21
475, 292, 169, 289, 293
476, 300, 221, 172, 171
477, 300, 171, 209, 221
478, 344, 254, 310, 266
479, 303, 299, 300, 171
480, 339, 26, 25, 255
481, 300, 299, 110, 294
482, 303, 300, 172, 171
483, 310, 107, 313, 309
484, 343, 25, 339, 106
485, 174, 61, 314, 62
486, 344, 310, 309, 303
487, 300, 148, 110, 109
488, 308, 188, 212, 189
489, 311, 316, 134, 133
490, 313, 213, 315, 174
491, 311, 36, 236, 240
492, 320, 103, 104, 27
493, 314, 339, 267, 61
494, 236, 36, 134, 35
495, 344, 266, 310, 303
496, 312, 153, 315, 159
497, 294, 65, 299, 258
498, 320, 256, 176, 59
499, 293, 168, 215, 169
500, 321, 325, 177, 178
501, 321, 155, 102, 326
502, 187, 240, 88, 87
503, 308, 187, 307, 312
504, 308, 304, 309, 154
505, 318, 315, 319, 105
506, 344, 314, 310, 254
507, 307, 37, 133, 240
508, 310, 254, 23, 266
509, 313, 153, 106, 315
510, 176, 256, 60, 59
511, 311, 236, 88, 240
512, 316, 150, 135, 134
513, 299, 110, 294, 21
514, 317, 35, 236, 134
515, 318, 217, 176, 208
516, 28, 103, 261, 27
517, 318, 150, 315, 105
518, 268, 326, 57, 262
519, 344, 173, 309, 313
520, 319, 255, 175, 60
521, 324, 218, 183, 207
522, 311, 317, 236, 134
523, 317, 186, 236, 89
524, 320, 261, 103, 27
525, 311, 316, 317, 134
526, 307, 132, 153, 133
527, 291, 290, 193, 194
528, 338, 187, 188, 87
529, 177, 58, 261, 59
530, 311, 186, 316, 222
531, 308, 153, 132, 154
532, 174, 339, 61, 175
533, 186, 88, 236, 89
534, 344, 64, 172, 63
535, 318, 104, 319, 320
536, 311, 187, 186, 222
537, 316, 135, 150, 322
538, 308, 312, 313, 213
539, 317, 135, 227, 35
540, 311, 307, 133, 240
541, 280, 231, 125, 285
542, 339, 255, 25, 267
543, 311, 36, 134, 236
544, 318, 315, 208, 175
545, 340, 185, 90, 184
546, 342, 145, 138, 324
547, 273, 122, 146, 157
548, 323, 33, 235, 136
549, 340, 90, 91, 184
550, 228, 306, 338, 307
551, 311, 317, 186, 236
552, 235, 323, 340, 91
553, 183, 341, 182, 92
554, 318, 105, 104, 150
555, 320, 177, 261, 59
556, 322, 136, 235, 34
557, 319, 256, 104, 26
558, 319, 176, 256, 60
559, 319, 26, 339, 255
560, 278, 282, 281, 156
561, 321, 149, 155, 322
562, 320, 256, 319, 176
563, 316, 222, 186, 208
564, 320, 176, 177, 59
565, 321, 326, 325, 178
566, 310, 108, 107, 309
567, 343, 314, 254, 310
568, 322, 184, 218, 217
569, 322, 136, 149, 155
570, 322, 227, 135, 34
571, 311, 187, 307, 240
572, 316, 159, 150, 134
573, 323, 235, 322, 136
574, 319, 256, 255, 60
575, 105, 25, 339, 26
576, 321, 325, 102, 103
577, 319, 175, 176, 60
578, 325, 58, 262, 261
579, 320, 104, 256, 27
580, 315, 222, 208, 175
581, 326, 145, 155, 102
582, 320, 256, 261, 27
583, 318, 319, 315, 175
584, 325, 28, 262, 102
585, 315, 105, 339, 319
586, 182, 93, 92, 239
587, 326, 140, 145, 101
588, 326, 155, 145, 324
589, 325, 177, 58, 261
590, 179, 178, 57, 326
591, 270, 328, 30, 143
592, 94, 203, 329, 250
593, 324, 155, 145, 137
594, 295, 191, 298, 219
595, 316, 133, 159, 134
596, 322, 149, 136, 135
597, 340, 323, 322, 184
598, 316, 186, 185, 208
599, 235, 33, 34, 136
600, 322, 184, 217, 185
601, 340, 322, 185, 184
602, 326, 179, 180, 328
603, 325, 178, 58, 177
604, 178, 262, 58, 57
605, 321, 155, 326, 324
606, 315, 150, 159, 105
607, 179, 57, 56, 268
608, 325, 28, 103, 261
609, 298, 129, 160, 148
610, 270, 56, 268, 328
611, 268, 328, 56, 179
612, 268, 101, 29, 30
613, 274, 226, 141, 119
614, 326, 262, 325, 178
615, 5, 56, 270, 202
616, 326, 179, 328, 268
617, 291, 128, 296, 127
618, 322, 217, 208, 185
619, 327, 248, 140, 328
620, 321, 320, 177, 325
621, 324, 218, 184, 183
622, 322, 135, 136, 34
623, 325, 103, 28, 102
624, 324, 137, 145, 138
625, 326, 178, 218, 207
626, 324, 184, 218, 322
627, 325, 261, 320, 177
628, 322, 149, 135, 150
629, 316, 185, 322, 208
630, 66, 65, 294, 258
631, 321, 218, 324, 326
632, 318, 149, 104, 103
633, 317, 135, 35, 134
634, 340, 235, 90, 227
635, 298, 297, 295, 129
636, 342, 326, 145, 324
637, 326, 102, 325, 262
638, 249, 1, 9, 143
639, 325, 262, 58, 178
640, 328, 202, 249, 270
641, 327, 329, 95, 181
642, 342, 181, 207, 182
643, 328, 270, 249, 143
644, 56, 328, 202, 179
645, 249, 328, 96, 202
646, 1, 143, 270, 30
647, 100, 1, 249, 270
648, 326, 218, 324, 207
649, 96, 328, 248, 180
650, 303, 109, 108, 300
651, 138, 329, 31, 144
652, 326, 207, 327, 180
653, 329, 250, 203, 245
654, 327, 139, 329, 138
655, 245, 4, 31, 144
656, 341, 92, 233, 239
657, 329, 203, 182, 245
658, 247, 11, 250, 139
659, 32, 33, 233, 137
660, 138, 239, 341, 32
661, 92, 183, 233, 91
662, 249, 270, 5, 100
663, 182, 93, 239, 245
664, 324, 322, 155, 136
665, 273, 238, 244, 48
666, 341, 324, 138, 137
667, 31, 138, 32, 239
668, 99, 250, 4, 245
669, 96, 202, 328, 180
670, 247, 10, 11, 139
671, 325, 262, 28, 261
672, 8, 245, 250, 99
673, 4, 245, 250, 144
674, 324, 155, 137, 136
675, 323, 91, 235, 233
676, 329, 250, 144, 139
677, 203, 250, 8, 245
678, 327, 145, 140, 139
679, 203, 245, 93, 182
680, 250, 144, 139, 11
681, 313, 154, 309, 107
682, 8, 245, 93, 203
683, 202, 5, 249, 270
684, 250, 11, 4, 144
685, 329, 144, 250, 245
686, 329, 139, 144, 138
687, 31, 144, 329, 245
688, 329, 181, 182, 203
689, 249, 143, 9, 328
690, 94, 203, 250, 8
691, 138, 239, 31, 329
692, 247, 327, 95, 248
693, 9, 328, 143, 140
694, 329, 245, 182, 239
695, 248, 328, 9, 140
696, 181, 329, 94, 203
697, 94, 329, 247, 250
698, 326, 327, 328, 180
699, 30, 143, 328, 101
700, 341, 323, 233, 183
701, 328, 202, 179, 180
702, 96, 248, 95, 180
703, 328, 143, 140, 101
704, 270, 202, 56, 328
705, 326, 328, 101, 268
706, 270, 268, 30, 328
707, 249, 248, 96, 328
708, 5, 96, 202, 249
709, 315, 174, 213, 222
710, 343, 254, 24, 310
711, 344, 309, 310, 313
712, 309, 108, 107, 154
713, 318, 149, 322, 150
714, 318, 319, 176, 320
715, 318, 104, 105, 319
716, 321, 326, 102, 325
717, 318, 315, 150, 316
718, 318, 176, 319, 175
719, 321, 218, 322, 324
720, 315, 105, 159, 106
721, 315, 222, 175, 174
722, 315, 159, 150, 316
723, 343, 313, 315, 314
724, 317, 316, 135, 134
725, 312, 133, 316, 311
726, 317, 227, 236, 35
727, 311, 88, 236, 186
728, 229, 297, 40, 41
729, 297, 129, 298, 301
730, 298, 129, 295, 160
731, 293, 169, 219, 302
732, 83, 192, 229, 242
733, 291, 151, 128, 127
734, 295, 302, 298, 160
735, 303, 299, 22, 109
736, 308, 313, 309, 213
737, 309, 221, 300, 304
738, 344, 172, 309, 173
739, 305, 131, 301, 304
740, 312, 187, 311, 222
741, 308, 309, 313, 154
742, 305, 221, 189, 304
743, 310, 23, 24, 107
744, 318, 322, 316, 150
745, 318, 217, 208, 322
746, 318, 208, 315, 316
747, 318, 322, 208, 316
748, 284, 195, 194, 220
749, 283, 156, 147, 281
750, 278, 216, 276, 275
751, 277, 196, 281, 210
752, 336, 18, 17, 264
753, 112, 113, 336, 18
754, 334, 231, 79, 232
755, 286, 214, 194, 291
756, 287, 286, 214, 220
757, 284, 194, 286, 220
758, 286, 152, 126, 161
759, 296, 297, 41, 128
760, 291, 193, 214, 194
761, 286, 126, 152, 291
762, 284, 280, 125, 285
763, 284, 126, 125, 161
764, 290, 42, 296, 230
765, 326, 102, 262, 29
766, 321, 218, 326, 178
767, 341, 329, 182, 239
768, 327, 207, 181, 180
769, 326, 102, 101, 145
770, 327, 329, 139, 247
771, 241, 39, 305, 131
772, 306, 304, 131, 305
773, 308, 307, 153, 312
774, 303, 253, 22, 299
775, 301, 129, 130, 40
776, 297, 301, 191, 229
777, 234, 191, 229, 84
778, 301, 234, 190, 191
779, 317, 236, 227, 89
780, 317, 316, 186, 185
781, 317, 227, 322, 185
782, 317, 322, 316, 185
783, 317, 185, 186, 89
784, 317, 227, 185, 89
785, 278, 210, 281, 282
786, 278, 276, 282, 157
787, 278, 276, 216, 282
788, 333, 278, 275, 277
789, 273, 238, 122, 275
790, 226, 204, 53, 274
791, 273, 206, 199, 198
792, 206, 331, 271, 272
793, 108, 309, 300, 158
794, 303, 109, 300, 299
795, 306, 305, 131, 241
796, 338, 306, 308, 307
797, 306, 241, 131, 38
798, 337, 221, 300, 209
799, 299, 21, 22, 109
800, 303, 64, 172, 266
801, 170, 294, 66, 65
802, 337, 221, 190, 305
803, 309, 212, 221, 304
804, 300, 302, 148, 298
805, 343, 254, 267, 24
806, 300, 294, 110, 302
807, 343, 254, 314, 267
808, 300, 158, 148, 109
809, 291, 215, 192, 295
810, 295, 128, 291, 151
811, 296, 127, 128, 42
812, 288, 214, 287, 286
813, 284, 220, 286, 287
814, 138, 341, 137, 32
815, 323, 137, 233, 33
816, 323, 137, 33, 136
817, 341, 324, 323, 183
818, 95, 329, 94, 181
819, 329, 139, 247, 250
820, 341, 138, 329, 239
821, 323, 324, 137, 136
822, 323, 322, 324, 136
823, 294, 170, 300, 299
824, 300, 302, 209, 170
825, 302, 300, 294, 170
826, 312, 213, 187, 222
827, 312, 316, 315, 222
828, 308, 306, 189, 304
829, 313, 173, 213, 174
830, 311, 133, 36, 240
831, 311, 36, 133, 134
832, 55, 271, 205, 225
833, 200, 205, 55, 271
834, 330, 272, 224, 271
835, 330, 223, 224, 272
836, 271, 224, 200, 272
837, 327, 145, 139, 138
838, 326, 145, 140, 327
839, 326, 328, 140, 101
840, 327, 138, 342, 145
841, 271, 273, 199, 244
842, 271, 246, 121, 244
843, 271, 121, 273, 244
844, 235, 322, 340, 323
845, 323, 322, 184, 324
846, 323, 324, 184, 183
847, 182, 92, 341, 239
848, 323, 183, 91, 233
849, 323, 184, 91, 183
850, 305, 234, 241, 85
851, 305, 190, 234, 85
852, 337, 191, 190, 209
853, 337, 300, 298, 209
854, 337, 298, 191, 209
855, 337, 300, 221, 304
856, 337, 301, 305, 190
857, 312, 133, 311, 307
858, 332, 276, 331, 117
859, 279, 116, 276, 117
860, 279, 116, 282, 276
861, 279, 116, 259, 282
862, 279, 116, 117, 14
863, 279, 117, 257, 14
864, 312, 316, 133, 159
865, 303, 253, 64, 266
866, 171, 64, 303, 253
867, 309, 172, 303, 300
868, 312, 311, 316, 222
869, 313, 153, 154, 107
870, 309, 212, 213, 173
871, 313, 213, 173, 309
872, 309, 304, 300, 158
873, 303, 300, 108, 309
874, 310, 23, 303, 266
875, 312, 153, 133, 307
876, 312, 133, 153, 159
877, 293, 111, 151, 112
878, 293, 295, 151, 160
879, 292, 111, 302, 293
880, 293, 302, 295, 160
881, 288, 293, 168, 214
882, 293, 291, 295, 215
883, 327, 207, 342, 181
884, 327, 140, 248, 10
885, 327, 248, 247, 10
886, 181, 180, 95, 327
887, 327, 139, 140, 10
888, 327, 247, 139, 10
889, 95, 327, 180, 248
890, 327, 248, 328, 180
891, 293, 295, 219, 215
892, 293, 302, 219, 295
893, 336, 289, 18, 264
894, 288, 214, 168, 167
895, 293, 215, 168, 214
896, 293, 291, 215, 214
897, 306, 307, 228, 132
898, 308, 313, 153, 154
899, 306, 189, 305, 241
900, 306, 189, 304, 305
901, 306, 189, 241, 86
902, 306, 188, 189, 86
903, 308, 309, 212, 213
904, 312, 315, 213, 222
905, 314, 174, 173, 313
906, 235, 91, 340, 90
907, 314, 315, 174, 313
908, 314, 173, 174, 62
909, 321, 320, 325, 103
910, 318, 176, 177, 320
911, 318, 104, 149, 150
912, 318, 208, 176, 175
913, 297, 301, 229, 40
914, 297, 129, 301, 40
915, 229, 192, 191, 297
916, 83, 191, 229, 192
917, 297, 295, 191, 298
918, 297, 192, 191, 295
919, 308, 307, 306, 132
920, 308, 132, 304, 154
921, 308, 212, 304, 189
922, 308, 188, 189, 306
923, 308, 306, 304, 132
924, 344, 266, 303, 172
925, 344, 63, 172, 173
926, 343, 107, 310, 24
927, 343, 107, 24, 106
928, 343, 313, 107, 106
929, 344, 314, 313, 310
930, 343, 107, 313, 310
931, 343, 315, 313, 106
932, 343, 24, 267, 25
933, 288, 152, 286, 287
934, 284, 280, 196, 281
935, 287, 286, 161, 152
936, 251, 71, 335, 165
937, 288, 293, 112, 289
938, 288, 289, 336, 167
939, 287, 161, 113, 152
940, 277, 275, 333, 237
941, 123, 333, 124, 281
942, 333, 281, 278, 277
943, 124, 281, 333, 280
944, 333, 232, 277, 237
945, 333, 46, 232, 237
946, 318, 104, 320, 103
947, 321, 149, 318, 103
948, 321, 177, 320, 318
949, 321, 324, 322, 155
950, 321, 218, 177, 217
951, 330, 272, 274, 223
952, 330, 121, 142, 120
953, 142, 330, 225, 271
954, 331, 276, 273, 146
955, 118, 117, 331, 146
956, 331, 201, 162, 274
957, 206, 162, 331, 201
958, 287, 211, 220, 166
959, 287, 283, 211, 166
960, 334, 284, 196, 195
961, 336, 166, 264, 260
962, 336, 17, 113, 114
963, 336, 113, 287, 114
964, 336, 264, 17, 260
965, 284, 211, 281, 196
966, 284, 125, 280, 147
967, 284, 211, 220, 287
968, 284, 194, 195, 285
969, 284, 280, 281, 147
970, 284, 195, 220, 211
971, 284, 283, 287, 147
972, 284, 211, 287, 283
973, 284, 211, 283, 281
974, 252, 289, 18, 292
975, 292, 289, 112, 293
976, 20, 19, 292, 265
977, 292, 294, 20, 265
978, 292, 111, 20, 294
979, 343, 24, 25, 106
980, 265, 252, 289, 67
981, 265, 289, 169, 67
982, 308, 187, 213, 188
983, 308, 213, 187, 312
984, 314, 62, 61, 267
985, 339, 175, 319, 255
986, 315, 339, 174, 175
987, 16, 17, 283, 114
988, 343, 313, 314, 310
989, 343, 339, 314, 315
990, 339, 61, 175, 255
991, 314, 174, 315, 339
992, 284, 125, 126, 285
993, 284, 126, 286, 285
994, 296, 242, 192, 193
995, 192, 193, 242, 82
996, 296, 193, 290, 230
997, 296, 290, 193, 291
998, 296, 193, 192, 291
999, 242, 193, 230, 82
1000, 296, 230, 242, 193
1001, 278, 277, 197, 275
1002, 278, 210, 197, 277
1003, 278, 273, 122, 275
1004, 278, 157, 122, 273
1005, 278, 122, 157, 123
1006, 333, 278, 122, 275
1007, 326, 29, 262, 268
1008, 326, 101, 29, 268
1009, 288, 289, 168, 293
1010, 288, 152, 112, 151
1011, 288, 291, 152, 151
1012, 288, 293, 291, 151
1013, 288, 112, 293, 151
1014, 321, 318, 149, 322
1015, 321, 322, 218, 217
1016, 321, 318, 322, 217
1017, 321, 177, 318, 217
1018, 287, 336, 166, 167
1019, 318, 217, 177, 176
1020, 283, 260, 251, 70
1021, 283, 336, 166, 287
1022, 283, 70, 251, 165
1023, 283, 166, 70, 165
1024, 335, 259, 116, 282
1025, 335, 71, 251, 259
1026, 282, 165, 335, 164
1027, 282, 164, 335, 259
1028, 251, 335, 15, 16
1029, 335, 259, 164, 71
1030, 327, 342, 207, 326
1031, 341, 137, 323, 324
1032, 341, 137, 233, 323
1033, 342, 341, 324, 138
1034, 182, 342, 341, 183
1035, 207, 326, 342, 324
1036, 327, 342, 329, 181
1037, 334, 196, 79, 195
1038, 334, 79, 196, 232
1039, 334, 196, 280, 232
1040, 280, 334, 231, 285
1041, 283, 115, 16, 114
1042, 260, 166, 283, 336
1043, 264, 260, 166, 69
1044, 251, 283, 335, 16
1045, 264, 166, 167, 69
1046, 336, 167, 264, 166
1047, 340, 90, 185, 227
1048, 340, 185, 322, 227
1049, 343, 267, 339, 25
1050, 340, 322, 235, 227
1051, 235, 227, 322, 34
1052, 333, 123, 124, 46
1053, 333, 280, 281, 277
1054, 124, 45, 280, 46
1055, 333, 46, 280, 232
1056, 315, 319, 339, 175
1057, 119, 51, 330, 223
1058, 330, 274, 119, 223
1059, 274, 331, 119, 118
1060, 331, 117, 276, 146
1061, 330, 146, 120, 119
1062, 123, 278, 333, 281
1063, 105, 339, 319, 26
1064, 314, 61, 174, 339
1065, 339, 25, 105, 106
1066, 339, 105, 315, 106
1067, 73, 332, 163, 162
1068, 163, 331, 332, 276
1069, 332, 279, 276, 117
1070, 332, 257, 279, 117
1071, 332, 279, 163, 276
1072, 332, 257, 163, 279
1073, 337, 304, 301, 130
1074, 337, 148, 158, 130
1075, 337, 158, 148, 300
1076, 337, 158, 304, 130
1077, 337, 304, 158, 300
1078, 331, 146, 330, 119
1079, 331, 330, 272, 274
1080, 271, 331, 330, 272
1081, 331, 273, 276, 206
1082, 273, 330, 271, 331
1083, 272, 201, 331, 274
1084, 163, 206, 331, 276
1085, 331, 162, 332, 274
1086, 338, 228, 240, 87
1087, 338, 240, 228, 307
1088, 338, 240, 187, 87
1089, 338, 187, 240, 307
1090, 342, 182, 341, 329
1091, 342, 327, 329, 138
1092, 342, 329, 341, 138
1093, 341, 183, 342, 324
1094, 280, 284, 334, 285
1095, 188, 308, 338, 306
1096, 333, 122, 47, 275
1097, 114, 336, 283, 287
1098, 251, 165, 335, 283
*End Part
